*SPEF "ieee 1481-1999"
*DESIGN "tqvp_spi_traffic4"
*DATE "11:11:11 Fri 11 11, 1111"
*VENDOR "OpenRCX"
*PROGRAM "Parallel Extraction"
*VERSION "1.0"
*DESIGN_FLOW "NAME_SCOPE LOCAL" "PIN_CAP NONE"
*DIVIDER /
*DELIMITER :
*BUS_DELIMITER []
*T_UNIT 1 NS
*C_UNIT 1 PF
*R_UNIT 1 OHM
*L_UNIT 1 HENRY

*NAME_MAP
*3 address[0]
*4 address[1]
*5 address[2]
*6 address[3]
*7 address[4]
*8 address[5]
*9 clk
*10 data_in[0]
*11 data_in[10]
*12 data_in[11]
*13 data_in[12]
*14 data_in[13]
*15 data_in[14]
*16 data_in[15]
*17 data_in[16]
*18 data_in[17]
*19 data_in[18]
*20 data_in[19]
*21 data_in[1]
*22 data_in[20]
*23 data_in[21]
*24 data_in[22]
*25 data_in[23]
*26 data_in[24]
*27 data_in[25]
*28 data_in[26]
*29 data_in[27]
*30 data_in[28]
*31 data_in[29]
*32 data_in[2]
*33 data_in[30]
*34 data_in[31]
*35 data_in[3]
*36 data_in[4]
*37 data_in[5]
*38 data_in[6]
*39 data_in[7]
*40 data_in[8]
*41 data_in[9]
*42 data_out[0]
*43 data_out[10]
*44 data_out[11]
*45 data_out[12]
*46 data_out[13]
*47 data_out[14]
*48 data_out[15]
*49 data_out[16]
*50 data_out[17]
*51 data_out[18]
*52 data_out[19]
*53 data_out[1]
*54 data_out[20]
*55 data_out[21]
*56 data_out[22]
*57 data_out[23]
*58 data_out[24]
*59 data_out[25]
*60 data_out[26]
*61 data_out[27]
*62 data_out[28]
*63 net68
*64 data_out[2]
*65 net69
*66 net70
*67 data_out[3]
*68 data_out[4]
*69 data_out[5]
*70 data_out[6]
*71 data_out[7]
*72 data_out[8]
*73 data_out[9]
*74 data_read_n[0]
*75 data_read_n[1]
*76 data_ready
*77 data_write_n[0]
*78 data_write_n[1]
*79 rst_n
*80 ui_in[0]
*81 ui_in[1]
*82 ui_in[2]
*83 ui_in[3]
*84 ui_in[4]
*85 ui_in[5]
*86 ui_in[6]
*87 ui_in[7]
*88 uo_out[0]
*89 uo_out[1]
*90 uo_out[2]
*91 uo_out[3]
*92 net71
*93 net72
*94 net73
*95 net74
*96 user_interrupt
*97 _0000_
*98 _0001_
*99 _0002_
*100 _0003_
*101 _0004_
*102 _0005_
*103 _0006_
*104 _0007_
*105 _0008_
*106 _0009_
*107 _0010_
*108 _0011_
*109 _0012_
*110 _0013_
*111 _0014_
*112 _0015_
*113 _0016_
*114 _0017_
*115 _0018_
*116 _0019_
*117 _0020_
*118 _0021_
*119 _0022_
*120 _0023_
*121 _0024_
*122 _0025_
*123 _0026_
*124 _0027_
*125 _0028_
*126 _0029_
*127 _0030_
*128 _0031_
*129 _0032_
*130 _0033_
*131 _0034_
*132 _0035_
*133 _0036_
*134 _0037_
*135 _0038_
*136 _0039_
*137 _0040_
*138 _0041_
*139 _0042_
*140 _0043_
*141 _0044_
*142 _0045_
*143 _0046_
*144 _0047_
*145 _0048_
*146 _0049_
*147 _0050_
*148 _0051_
*149 _0052_
*150 _0053_
*151 _0054_
*152 _0055_
*153 _0056_
*154 _0057_
*155 _0058_
*156 _0059_
*157 _0060_
*158 _0061_
*159 _0062_
*160 _0063_
*161 _0064_
*162 _0065_
*163 _0066_
*164 _0067_
*165 _0068_
*166 _0069_
*167 _0070_
*168 _0071_
*169 _0072_
*170 _0073_
*171 _0074_
*172 _0075_
*173 _0076_
*174 _0077_
*175 _0078_
*176 _0079_
*177 _0080_
*178 _0081_
*179 _0082_
*180 _0083_
*181 _0084_
*182 _0085_
*183 _0086_
*184 _0087_
*185 _0088_
*186 _0089_
*187 _0090_
*188 _0091_
*189 _0092_
*190 _0093_
*191 _0094_
*192 _0095_
*193 _0096_
*194 _0097_
*195 _0098_
*196 _0099_
*197 _0100_
*198 _0101_
*199 _0102_
*200 _0103_
*201 _0104_
*202 _0105_
*203 _0106_
*204 _0107_
*205 _0108_
*206 _0109_
*207 _0110_
*208 _0111_
*209 _0112_
*210 _0113_
*211 _0114_
*212 _0115_
*213 _0116_
*214 _0117_
*215 _0118_
*216 _0119_
*217 _0120_
*218 _0121_
*219 _0122_
*220 _0123_
*221 _0124_
*222 _0125_
*223 _0126_
*224 _0127_
*225 _0128_
*226 _0129_
*227 _0130_
*228 _0131_
*229 _0132_
*230 _0133_
*231 _0134_
*232 _0135_
*233 _0136_
*234 _0137_
*235 _0138_
*236 _0139_
*237 _0140_
*238 _0141_
*239 _0142_
*240 _0143_
*241 _0144_
*242 _0145_
*243 _0146_
*244 _0147_
*245 _0148_
*246 _0149_
*247 _0150_
*248 _0151_
*249 _0152_
*250 _0153_
*251 _0154_
*252 _0155_
*253 _0156_
*254 _0157_
*255 _0158_
*256 _0159_
*257 _0160_
*258 _0161_
*259 _0162_
*260 _0163_
*261 _0164_
*262 _0165_
*263 _0166_
*264 _0167_
*265 _0168_
*266 _0169_
*267 _0170_
*268 _0171_
*269 _0172_
*270 _0173_
*271 _0174_
*272 _0175_
*273 _0176_
*274 _0177_
*275 _0178_
*276 _0179_
*277 _0180_
*278 _0181_
*279 _0182_
*280 _0183_
*281 _0184_
*282 _0185_
*283 _0186_
*284 _0187_
*285 _0188_
*286 _0189_
*287 _0190_
*288 _0191_
*289 _0192_
*290 _0193_
*291 _0194_
*292 _0195_
*293 _0196_
*294 _0197_
*295 _0198_
*296 _0199_
*297 _0200_
*298 _0201_
*299 _0202_
*300 _0203_
*301 _0204_
*302 _0205_
*303 _0206_
*304 _0207_
*305 _0208_
*306 _0209_
*307 _0210_
*308 _0211_
*309 _0212_
*310 _0213_
*311 _0214_
*312 _0215_
*313 _0216_
*314 _0217_
*315 _0218_
*316 _0219_
*317 _0220_
*318 _0221_
*319 _0222_
*320 _0223_
*321 _0224_
*322 _0225_
*323 _0226_
*324 _0227_
*325 _0228_
*326 _0229_
*327 _0230_
*328 _0231_
*329 _0232_
*330 _0233_
*331 _0234_
*332 _0235_
*333 _0236_
*334 _0237_
*335 _0238_
*336 _0239_
*337 _0240_
*338 _0241_
*339 _0242_
*340 _0243_
*341 _0244_
*342 _0245_
*343 _0246_
*344 _0247_
*345 _0248_
*346 _0249_
*347 _0250_
*348 _0251_
*349 _0252_
*350 _0253_
*351 _0254_
*352 _0255_
*353 _0256_
*354 _0257_
*355 _0258_
*356 _0259_
*357 _0260_
*358 _0261_
*359 _0262_
*360 _0263_
*361 _0264_
*362 _0265_
*363 _0266_
*364 _0267_
*365 _0268_
*366 _0269_
*367 _0270_
*368 _0271_
*369 _0272_
*370 _0273_
*371 _0274_
*372 _0275_
*373 _0276_
*374 _0277_
*375 _0278_
*376 _0279_
*377 _0280_
*378 _0281_
*379 _0282_
*380 _0283_
*381 _0284_
*382 _0285_
*383 _0286_
*384 _0287_
*385 _0288_
*386 _0289_
*387 _0290_
*388 _0291_
*389 _0292_
*390 _0293_
*391 _0294_
*392 _0295_
*393 _0296_
*394 _0297_
*395 _0298_
*396 _0299_
*397 _0300_
*398 _0301_
*399 _0302_
*400 _0303_
*401 _0304_
*402 _0305_
*403 _0306_
*404 _0307_
*405 _0308_
*406 _0309_
*407 _0310_
*408 _0311_
*409 _0312_
*410 _0313_
*411 _0314_
*412 _0315_
*413 _0316_
*414 _0317_
*415 _0318_
*416 _0319_
*417 _0320_
*418 _0321_
*419 _0322_
*420 _0323_
*421 _0324_
*422 _0325_
*423 _0326_
*424 _0327_
*425 _0328_
*426 _0329_
*427 _0330_
*428 _0331_
*429 _0332_
*430 _0333_
*431 _0334_
*432 _0335_
*433 _0336_
*434 _0337_
*435 _0338_
*436 _0339_
*437 _0340_
*438 _0341_
*439 _0342_
*440 _0343_
*441 _0344_
*442 _0345_
*443 _0346_
*444 _0347_
*445 _0348_
*446 _0349_
*447 _0350_
*448 _0351_
*449 _0352_
*450 _0353_
*451 _0354_
*452 _0355_
*453 _0356_
*454 _0357_
*455 _0358_
*456 _0359_
*457 _0360_
*458 _0361_
*459 _0362_
*460 _0363_
*461 _0364_
*462 _0365_
*463 _0366_
*464 _0367_
*465 _0368_
*466 _0369_
*467 _0370_
*468 _0371_
*469 _0372_
*470 _0373_
*471 _0374_
*472 _0375_
*473 _0376_
*474 _0377_
*475 _0378_
*476 _0379_
*477 _0380_
*478 _0381_
*479 _0382_
*480 _0383_
*481 _0384_
*482 _0385_
*483 _0386_
*484 _0387_
*485 _0388_
*486 _0389_
*487 _0390_
*488 _0391_
*489 _0392_
*490 _0393_
*491 _0394_
*492 _0395_
*493 _0396_
*494 _0397_
*495 _0398_
*496 _0399_
*497 _0400_
*498 _0401_
*499 _0402_
*500 _0403_
*501 _0404_
*502 _0405_
*503 _0406_
*504 _0407_
*505 _0408_
*506 _0409_
*507 _0410_
*508 _0411_
*509 _0412_
*510 _0413_
*511 _0414_
*512 _0415_
*513 _0416_
*514 _0417_
*515 _0418_
*516 _0419_
*517 _0420_
*518 _0421_
*519 _0422_
*520 _0423_
*521 _0424_
*522 _0425_
*523 _0426_
*524 _0427_
*525 _0428_
*526 _0429_
*527 _0430_
*528 _0431_
*529 _0432_
*530 _0433_
*531 _0434_
*532 _0435_
*533 _0436_
*534 _0437_
*535 _0438_
*536 _0439_
*537 _0440_
*538 _0441_
*539 _0442_
*540 _0443_
*541 _0444_
*542 _0445_
*543 _0446_
*544 _0447_
*545 _0448_
*546 _0449_
*547 _0450_
*548 _0451_
*549 _0452_
*550 _0453_
*551 _0454_
*552 _0455_
*553 _0456_
*554 _0457_
*555 _0458_
*556 _0459_
*557 _0460_
*558 _0461_
*559 _0462_
*560 _0463_
*561 _0464_
*562 _0465_
*563 _0466_
*564 _0467_
*565 _0468_
*566 _0469_
*567 _0470_
*568 _0471_
*569 _0472_
*570 _0473_
*571 _0474_
*572 _0475_
*573 _0476_
*574 _0477_
*575 _0478_
*576 _0479_
*577 _0480_
*578 _0481_
*579 _0482_
*580 _0483_
*581 _0484_
*582 _0485_
*583 _0486_
*584 clknet_0_clk
*585 clknet_4_0_0_clk
*586 clknet_4_10_0_clk
*587 clknet_4_11_0_clk
*588 clknet_4_12_0_clk
*589 clknet_4_13_0_clk
*590 clknet_4_14_0_clk
*591 clknet_4_15_0_clk
*592 clknet_4_1_0_clk
*593 clknet_4_2_0_clk
*594 clknet_4_3_0_clk
*595 clknet_4_4_0_clk
*596 clknet_4_5_0_clk
*597 clknet_4_6_0_clk
*598 clknet_4_7_0_clk
*599 clknet_4_8_0_clk
*600 clknet_4_9_0_clk
*601 ctrl_enable
*602 ctrl_pulse_mode
*603 last_spi_seq\[0\]
*604 last_spi_seq\[1\]
*605 last_spi_seq\[2\]
*606 last_spi_seq\[3\]
*607 last_spi_seq\[4\]
*608 last_spi_seq\[5\]
*609 last_spi_seq\[6\]
*610 last_spi_seq\[7\]
*611 last_spi_seq_valid
*612 loop_inactive_count\[0\]
*613 loop_inactive_count\[1\]
*614 loop_inactive_count\[2\]
*615 loop_inactive_count\[3\]
*616 loop_inactive_stable
*617 loop_s1
*618 loop_s2
*619 net1
*620 net10
*621 net100
*622 net101
*623 net102
*624 net103
*625 net104
*626 net105
*627 net106
*628 net107
*629 net108
*630 net109
*631 net11
*632 net110
*633 net111
*634 net112
*635 net113
*636 net114
*637 net115
*638 net116
*639 net117
*640 net118
*641 net119
*642 net12
*643 net120
*644 net121
*645 net122
*646 net123
*647 net124
*648 net125
*649 net126
*650 net127
*651 net128
*652 net129
*653 net13
*654 net130
*655 net131
*656 net132
*657 net133
*658 net134
*659 net135
*660 net136
*661 net137
*662 net138
*663 net139
*664 net14
*665 net140
*666 net141
*667 net142
*668 net143
*669 net144
*670 net145
*671 net146
*672 net147
*673 net148
*674 net149
*675 net15
*676 net150
*677 net151
*678 net152
*679 net153
*680 net154
*681 net155
*682 net156
*683 net157
*684 net158
*685 net159
*686 net16
*687 net160
*688 net161
*689 net162
*690 net163
*691 net164
*692 net165
*693 net166
*694 net167
*695 net17
*696 net18
*697 net19
*698 net2
*699 net20
*700 net21
*701 net22
*702 net23
*703 net24
*704 net25
*705 net26
*706 net27
*707 net28
*708 net29
*709 net3
*710 net30
*711 net31
*712 net32
*713 net33
*714 net34
*715 net35
*716 net36
*717 net37
*718 net38
*719 net39
*720 net4
*721 net40
*722 net41
*723 net42
*724 net43
*725 net44
*726 net45
*727 net46
*728 net47
*729 net48
*730 net49
*731 net5
*732 net50
*733 net51
*734 net52
*735 net53
*736 net54
*737 net55
*738 net56
*739 net57
*740 net58
*741 net59
*742 net6
*743 net60
*744 net61
*745 net62
*746 net63
*747 net64
*748 net65
*749 net66
*750 net67
*751 net7
*752 net75
*753 net76
*754 net77
*755 net78
*756 net79
*757 net8
*758 net80
*759 net81
*760 net82
*761 net83
*762 net84
*763 net85
*764 net86
*765 net87
*766 net88
*767 net89
*768 net9
*769 net90
*770 net91
*771 net92
*772 net93
*773 net94
*774 net95
*775 net96
*776 net97
*777 net98
*778 net99
*779 pulse_count\[0\]
*780 pulse_count\[1\]
*781 pulse_count\[2\]
*782 pulse_count\[3\]
*783 spi_bit_count\[0\]
*784 spi_bit_count\[1\]
*785 spi_bit_count\[2\]
*786 spi_bit_count\[3\]
*787 spi_bit_count\[4\]
*788 spi_bit_count\[5\]
*789 spi_cmd_byte\[0\]
*790 spi_cmd_byte\[1\]
*791 spi_cmd_byte\[2\]
*792 spi_cmd_byte\[3\]
*793 spi_cmd_byte\[4\]
*794 spi_cmd_byte\[5\]
*795 spi_cmd_byte\[6\]
*796 spi_cmd_byte\[7\]
*797 spi_cs_s1
*798 spi_cs_s2
*799 spi_data_byte\[0\]
*800 spi_data_byte\[1\]
*801 spi_data_byte\[2\]
*802 spi_data_byte\[3\]
*803 spi_data_byte\[4\]
*804 spi_data_byte\[5\]
*805 spi_data_byte\[6\]
*806 spi_data_byte\[7\]
*807 spi_frame_done
*808 spi_last_cmd_ok
*809 spi_last_packet_accepted
*810 spi_last_seq_ok
*811 spi_last_tag_ok
*812 spi_mosi_s1
*813 spi_mosi_s2
*814 spi_packet_ready
*815 spi_sck_s1
*816 spi_sck_s2
*817 spi_seq_byte\[0\]
*818 spi_seq_byte\[1\]
*819 spi_seq_byte\[2\]
*820 spi_seq_byte\[3\]
*821 spi_seq_byte\[4\]
*822 spi_seq_byte\[5\]
*823 spi_seq_byte\[6\]
*824 spi_seq_byte\[7\]
*825 spi_shift\[0\]
*826 spi_shift\[10\]
*827 spi_shift\[11\]
*828 spi_shift\[12\]
*829 spi_shift\[13\]
*830 spi_shift\[14\]
*831 spi_shift\[15\]
*832 spi_shift\[16\]
*833 spi_shift\[17\]
*834 spi_shift\[18\]
*835 spi_shift\[19\]
*836 spi_shift\[1\]
*837 spi_shift\[20\]
*838 spi_shift\[21\]
*839 spi_shift\[22\]
*840 spi_shift\[23\]
*841 spi_shift\[24\]
*842 spi_shift\[25\]
*843 spi_shift\[26\]
*844 spi_shift\[27\]
*845 spi_shift\[28\]
*846 spi_shift\[29\]
*847 spi_shift\[2\]
*848 spi_shift\[30\]
*849 spi_shift\[3\]
*850 spi_shift\[4\]
*851 spi_shift\[5\]
*852 spi_shift\[6\]
*853 spi_shift\[7\]
*854 spi_shift\[8\]
*855 spi_shift\[9\]
*856 spi_tag_byte\[0\]
*857 spi_tag_byte\[1\]
*858 spi_tag_byte\[2\]
*859 spi_tag_byte\[3\]
*860 spi_tag_byte\[4\]
*861 spi_tag_byte\[5\]
*862 spi_tag_byte\[6\]
*863 spi_tag_byte\[7\]
*864 supplemental_request_level
*865 threshold_reg\[0\]
*866 threshold_reg\[1\]
*867 threshold_reg\[2\]
*868 threshold_reg\[3\]
*869 wifi_above_threshold
*870 wifi_count_reg\[0\]
*871 wifi_count_reg\[1\]
*872 wifi_count_reg\[2\]
*873 wifi_count_reg\[3\]
*874 wifi_demand_d
*875 wifi_timeout\[0\]
*876 wifi_timeout\[10\]
*877 wifi_timeout\[11\]
*878 wifi_timeout\[12\]
*879 wifi_timeout\[13\]
*880 wifi_timeout\[14\]
*881 wifi_timeout\[15\]
*882 wifi_timeout\[1\]
*883 wifi_timeout\[2\]
*884 wifi_timeout\[3\]
*885 wifi_timeout\[4\]
*886 wifi_timeout\[5\]
*887 wifi_timeout\[6\]
*888 wifi_timeout\[7\]
*889 wifi_timeout\[8\]
*890 wifi_timeout\[9\]
*891 wifi_timeout_tick_count\[0\]
*892 wifi_timeout_tick_count\[1\]
*893 wifi_timeout_tick_count\[2\]
*894 wifi_timeout_tick_count\[3\]
*895 wifi_timeout_tick_count\[4\]
*896 wifi_timeout_tick_count\[5\]
*897 wifi_timeout_tick_count\[6\]
*898 wifi_timeout_tick_count\[7\]
*899 wifi_valid
*900 ANTENNA__0490__A
*901 ANTENNA__0491__B
*902 ANTENNA__0494__A
*903 ANTENNA__0499__A
*904 ANTENNA__0514__A
*905 ANTENNA__0516__B
*906 ANTENNA__0527__A
*907 ANTENNA__0541__A
*908 ANTENNA__0560__A_N
*909 ANTENNA__0561__B_N
*910 ANTENNA__0585__A
*911 ANTENNA__0594__A
*912 ANTENNA__0600__A
*913 ANTENNA__0600__B
*914 ANTENNA__0601__A_N
*915 ANTENNA__0601__B
*916 ANTENNA__0602__A_N
*917 ANTENNA__0602__B_N
*918 ANTENNA__0602__C
*919 ANTENNA__0602__D
*920 ANTENNA__0604__A
*921 ANTENNA__0604__B
*922 ANTENNA__0605__A_N
*923 ANTENNA__0605__C
*924 ANTENNA__0605__D
*925 ANTENNA__0606__A1
*926 ANTENNA__0606__B1
*927 ANTENNA__0607__A_N
*928 ANTENNA__0607__B
*929 ANTENNA__0608__A
*930 ANTENNA__0608__B
*931 ANTENNA__0609__A_N
*932 ANTENNA__0609__B_N
*933 ANTENNA__0609__C
*934 ANTENNA__0609__D
*935 ANTENNA__0611__B2
*936 ANTENNA__0614__A
*937 ANTENNA__0615__B1
*938 ANTENNA__0616__A_N
*939 ANTENNA__0616__B
*940 ANTENNA__0616__D
*941 ANTENNA__0617__A2
*942 ANTENNA__0617__B1
*943 ANTENNA__0621__B1
*944 ANTENNA__0623__A2
*945 ANTENNA__0623__B1
*946 ANTENNA__0623__B2
*947 ANTENNA__0624__A1
*948 ANTENNA__0625__B1
*949 ANTENNA__0627__A2
*950 ANTENNA__0627__B1
*951 ANTENNA__0628__A1
*952 ANTENNA__0629__B1
*953 ANTENNA__0631__A2
*954 ANTENNA__0632__A
*955 ANTENNA__0634__A2
*956 ANTENNA__0634__B1
*957 ANTENNA__0634__B2
*958 ANTENNA__0636__A
*959 ANTENNA__0638__A2
*960 ANTENNA__0639__A1
*961 ANTENNA__0640__A
*962 ANTENNA__0642__A
*963 ANTENNA__0643__A1
*964 ANTENNA__0643__A2
*965 ANTENNA__0643__B1
*966 ANTENNA__0644__A
*967 ANTENNA__0645__A
*968 ANTENNA__0646__A2
*969 ANTENNA__0646__B1
*970 ANTENNA__0647__A
*971 ANTENNA__0648__A
*972 ANTENNA__0649__A2
*973 ANTENNA__0649__B1
*974 ANTENNA__0650__A
*975 ANTENNA__0652__A2
*976 ANTENNA__0652__B1
*977 ANTENNA__0653__A
*978 ANTENNA__0655__A2
*979 ANTENNA__0655__B1
*980 ANTENNA__0656__A
*981 ANTENNA__0658__A2
*982 ANTENNA__0658__B1
*983 ANTENNA__0659__A
*984 ANTENNA__0660__A
*985 ANTENNA__0661__A2
*986 ANTENNA__0661__B1
*987 ANTENNA__0662__A
*988 ANTENNA__0663__A
*989 ANTENNA__0664__A2
*990 ANTENNA__0664__B1
*991 ANTENNA__0665__A
*992 ANTENNA__0666__A
*993 ANTENNA__0667__A2
*994 ANTENNA__0667__B1
*995 ANTENNA__0668__A
*996 ANTENNA__0670__A2
*997 ANTENNA__0670__B1
*998 ANTENNA__0671__A
*999 ANTENNA__0674__A2
*1000 ANTENNA__0674__B1
*1001 ANTENNA__0675__A
*1002 ANTENNA__0677__B
*1003 ANTENNA__0677__C
*1004 ANTENNA__0678__A
*1005 ANTENNA__0679__B
*1006 ANTENNA__0679__C
*1007 ANTENNA__0680__A
*1008 ANTENNA__0681__B
*1009 ANTENNA__0681__C
*1010 ANTENNA__0683__B
*1011 ANTENNA__0683__C
*1012 ANTENNA__0685__B
*1013 ANTENNA__0685__C
*1014 ANTENNA__0687__B
*1015 ANTENNA__0687__C
*1016 ANTENNA__0689__A
*1017 ANTENNA__0689__B
*1018 ANTENNA__0689__C
*1019 ANTENNA__0691__A
*1020 ANTENNA__0691__B
*1021 ANTENNA__0691__C
*1022 ANTENNA__0692__A
*1023 ANTENNA__0693__B
*1024 ANTENNA__0693__C
*1025 ANTENNA__0695__A
*1026 ANTENNA__0695__B
*1027 ANTENNA__0695__C
*1028 ANTENNA__0697__B
*1029 ANTENNA__0697__C
*1030 ANTENNA__0700__B
*1031 ANTENNA__0713__A
*1032 ANTENNA__0717__A
*1033 ANTENNA__0719__C
*1034 ANTENNA__0721__B1
*1035 ANTENNA__0722__A
*1036 ANTENNA__0724__A
*1037 ANTENNA__0725__A
*1038 ANTENNA__0726__A
*1039 ANTENNA__0728__B
*1040 ANTENNA__0730__A1
*1041 ANTENNA__0731__A
*1042 ANTENNA__0733__A
*1043 ANTENNA__0734__B2
*1044 ANTENNA__0739__A
*1045 ANTENNA__0746__A
*1046 ANTENNA__0747__C
*1047 ANTENNA__0748__A
*1048 ANTENNA__0750__A1
*1049 ANTENNA__0753__B1
*1050 ANTENNA__0754__B1
*1051 ANTENNA__0760__C1
*1052 ANTENNA__0761__B1_N
*1053 ANTENNA__0775__B
*1054 ANTENNA__0778__A1
*1055 ANTENNA__0781__A1
*1056 ANTENNA__0784__A1
*1057 ANTENNA__0787__A1
*1058 ANTENNA__0850__A
*1059 ANTENNA__0851__A1
*1060 ANTENNA__0851__A2
*1061 ANTENNA__0851__A3
*1062 ANTENNA__0852__B
*1063 ANTENNA__0855__A0
*1064 ANTENNA__0857__A0
*1065 ANTENNA__0859__A0
*1066 ANTENNA__0861__A1
*1067 ANTENNA__0863__A1
*1068 ANTENNA__0865__S
*1069 ANTENNA__0867__S
*1070 ANTENNA__0869__S
*1071 ANTENNA__0871__S
*1072 ANTENNA__0873__S
*1073 ANTENNA__0875__S
*1074 ANTENNA__0877__S
*1075 ANTENNA__0879__S
*1076 ANTENNA__0892__A2
*1077 ANTENNA__0892__B1
*1078 ANTENNA__0893__A2
*1079 ANTENNA__0893__B1
*1080 ANTENNA__0894__A2
*1081 ANTENNA__0894__B1
*1082 ANTENNA__0895__A2
*1083 ANTENNA__0895__B1
*1084 ANTENNA__0896__A2
*1085 ANTENNA__0896__B1
*1086 ANTENNA__0897__A2
*1087 ANTENNA__0897__B1
*1088 ANTENNA__0898__A2
*1089 ANTENNA__0898__B1
*1090 ANTENNA__0899__A2
*1091 ANTENNA__0899__B1
*1092 ANTENNA__0900__A2
*1093 ANTENNA__0900__B1
*1094 ANTENNA__0901__A2
*1095 ANTENNA__0901__B1
*1096 ANTENNA__0902__A2
*1097 ANTENNA__0902__B1
*1098 ANTENNA__0903__A2
*1099 ANTENNA__0903__B1
*1100 ANTENNA__0904__A2
*1101 ANTENNA__0904__B1
*1102 ANTENNA__0905__A2
*1103 ANTENNA__0905__B1
*1104 ANTENNA__0907__A2
*1105 ANTENNA__0907__B1
*1106 ANTENNA__0909__A2
*1107 ANTENNA__0909__B1
*1108 ANTENNA__0910__A2
*1109 ANTENNA__0910__B1
*1110 ANTENNA__0911__A2
*1111 ANTENNA__0911__B1
*1112 ANTENNA__0912__A2
*1113 ANTENNA__0912__B1
*1114 ANTENNA__0913__A2
*1115 ANTENNA__0913__B1
*1116 ANTENNA__0914__A2
*1117 ANTENNA__0914__B1
*1118 ANTENNA__0915__A2
*1119 ANTENNA__0915__B1
*1120 ANTENNA__0916__A2
*1121 ANTENNA__0916__B1
*1122 ANTENNA__0917__A2
*1123 ANTENNA__0917__B1
*1124 ANTENNA__0918__A2
*1125 ANTENNA__0918__B1
*1126 ANTENNA__0919__A2
*1127 ANTENNA__0919__B1
*1128 ANTENNA__0920__A2
*1129 ANTENNA__0920__B1
*1130 ANTENNA__0921__A2
*1131 ANTENNA__0921__B1
*1132 ANTENNA__0922__A2
*1133 ANTENNA__0922__B1
*1134 ANTENNA__0923__A2
*1135 ANTENNA__0923__B1
*1136 ANTENNA__0924__A2
*1137 ANTENNA__0926__A2
*1138 ANTENNA__0929__A3
*1139 ANTENNA__0939__A1
*1140 ANTENNA__0940__S
*1141 ANTENNA__0942__S
*1142 ANTENNA__0944__A1
*1143 ANTENNA__0944__S
*1144 ANTENNA__0946__S
*1145 ANTENNA__0948__S
*1146 ANTENNA__0950__A1
*1147 ANTENNA__0950__S
*1148 ANTENNA__0952__S
*1149 ANTENNA__0954__S
*1150 ANTENNA__0956__S
*1151 ANTENNA__0958__S
*1152 ANTENNA__0960__S
*1153 ANTENNA__0962__S
*1154 ANTENNA__0964__S
*1155 ANTENNA__0966__S
*1156 ANTENNA__0968__S
*1157 ANTENNA__0971__S
*1158 ANTENNA__0973__S
*1159 ANTENNA__0975__S
*1160 ANTENNA__0977__S
*1161 ANTENNA__0979__S
*1162 ANTENNA__0981__S
*1163 ANTENNA__0983__S
*1164 ANTENNA__0985__S
*1165 ANTENNA__0987__S
*1166 ANTENNA__0989__S
*1167 ANTENNA__0991__S
*1168 ANTENNA__0993__S
*1169 ANTENNA__0995__S
*1170 ANTENNA__0997__S
*1171 ANTENNA__0999__S
*1172 ANTENNA__1001__A1
*1173 ANTENNA__1001__S
*1174 ANTENNA__1010__RESET_B
*1175 ANTENNA__1011__RESET_B
*1176 ANTENNA__1012__RESET_B
*1177 ANTENNA__1013__RESET_B
*1178 ANTENNA__1014__RESET_B
*1179 ANTENNA__1015__RESET_B
*1180 ANTENNA__1016__RESET_B
*1181 ANTENNA__1017__RESET_B
*1182 ANTENNA__1019__RESET_B
*1183 ANTENNA__1020__RESET_B
*1184 ANTENNA__1041__RESET_B
*1185 ANTENNA__1047__RESET_B
*1186 ANTENNA__1050__SET_B
*1187 ANTENNA__1051__RESET_B
*1188 ANTENNA__1052__RESET_B
*1189 ANTENNA__1060__RESET_B
*1190 ANTENNA__1061__RESET_B
*1191 ANTENNA__1063__RESET_B
*1192 ANTENNA__1067__RESET_B
*1193 ANTENNA__1068__RESET_B
*1194 ANTENNA__1069__RESET_B
*1195 ANTENNA__1115__RESET_B
*1196 ANTENNA__1116__RESET_B
*1197 ANTENNA__1117__RESET_B
*1198 ANTENNA__1118__RESET_B
*1199 ANTENNA__1122__RESET_B
*1200 ANTENNA__1123__RESET_B
*1201 ANTENNA__1124__RESET_B
*1202 ANTENNA__1127__RESET_B
*1203 ANTENNA__1128__RESET_B
*1204 ANTENNA__1129__RESET_B
*1205 ANTENNA__1130__RESET_B
*1206 ANTENNA__1131__RESET_B
*1207 ANTENNA__1132__RESET_B
*1208 ANTENNA__1133__RESET_B
*1209 ANTENNA__1136__D
*1210 ANTENNA__1136__RESET_B
*1211 ANTENNA__1138__SET_B
*1212 ANTENNA__1139__SET_B
*1213 ANTENNA__1141__RESET_B
*1214 ANTENNA__1144__D
*1215 ANTENNA__1144__RESET_B
*1216 ANTENNA__1145__RESET_B
*1217 ANTENNA__1146__RESET_B
*1218 ANTENNA__1155__A
*1219 ANTENNA_clkbuf_4_0_0_clk_A
*1220 ANTENNA_clkbuf_4_10_0_clk_A
*1221 ANTENNA_clkbuf_4_11_0_clk_A
*1222 ANTENNA_clkbuf_4_12_0_clk_A
*1223 ANTENNA_clkbuf_4_13_0_clk_A
*1224 ANTENNA_clkbuf_4_14_0_clk_A
*1225 ANTENNA_clkbuf_4_15_0_clk_A
*1226 ANTENNA_clkbuf_4_1_0_clk_A
*1227 ANTENNA_clkbuf_4_2_0_clk_A
*1228 ANTENNA_clkbuf_4_3_0_clk_A
*1229 ANTENNA_clkbuf_4_4_0_clk_A
*1230 ANTENNA_clkbuf_4_5_0_clk_A
*1231 ANTENNA_clkbuf_4_6_0_clk_A
*1232 ANTENNA_clkbuf_4_7_0_clk_A
*1233 ANTENNA_clkbuf_4_8_0_clk_A
*1234 ANTENNA_clkbuf_4_9_0_clk_A
*1235 ANTENNA_fanout56_A
*1236 ANTENNA_fanout57_A
*1237 ANTENNA_fanout59_A
*1238 ANTENNA_fanout61_A
*1239 ANTENNA_fanout62_A
*1240 ANTENNA_fanout64_A
*1241 ANTENNA_fanout65_A
*1242 ANTENNA_output18_A
*1243 ANTENNA_output20_A
*1244 ANTENNA_output29_A
*1245 ANTENNA_output34_A
*1246 ANTENNA_output37_A
*1247 ANTENNA_output40_A
*1248 ANTENNA_output48_A
*1249 ANTENNA_output49_A
*1250 ANTENNA_output50_A
*1251 FILLER_0_0_109
*1252 FILLER_0_0_113
*1253 FILLER_0_0_125
*1254 FILLER_0_0_13
*1255 FILLER_0_0_137
*1256 FILLER_0_0_141
*1257 FILLER_0_0_153
*1258 FILLER_0_0_165
*1259 FILLER_0_0_169
*1260 FILLER_0_0_175
*1261 FILLER_0_0_182
*1262 FILLER_0_0_194
*1263 FILLER_0_0_197
*1264 FILLER_0_0_209
*1265 FILLER_0_0_221
*1266 FILLER_0_0_225
*1267 FILLER_0_0_237
*1268 FILLER_0_0_249
*1269 FILLER_0_0_25
*1270 FILLER_0_0_259
*1271 FILLER_0_0_271
*1272 FILLER_0_0_279
*1273 FILLER_0_0_281
*1274 FILLER_0_0_286
*1275 FILLER_0_0_29
*1276 FILLER_0_0_298
*1277 FILLER_0_0_306
*1278 FILLER_0_0_315
*1279 FILLER_0_0_327
*1280 FILLER_0_0_335
*1281 FILLER_0_0_343
*1282 FILLER_0_0_35
*1283 FILLER_0_0_355
*1284 FILLER_0_0_363
*1285 FILLER_0_0_365
*1286 FILLER_0_0_373
*1287 FILLER_0_0_385
*1288 FILLER_0_0_391
*1289 FILLER_0_0_393
*1290 FILLER_0_0_401
*1291 FILLER_0_0_413
*1292 FILLER_0_0_419
*1293 FILLER_0_0_42
*1294 FILLER_0_0_421
*1295 FILLER_0_0_426
*1296 FILLER_0_0_438
*1297 FILLER_0_0_446
*1298 FILLER_0_0_449
*1299 FILLER_0_0_457
*1300 FILLER_0_0_46
*1301 FILLER_0_0_469
*1302 FILLER_0_0_475
*1303 FILLER_0_0_477
*1304 FILLER_0_0_485
*1305 FILLER_0_0_497
*1306 FILLER_0_0_503
*1307 FILLER_0_0_505
*1308 FILLER_0_0_517
*1309 FILLER_0_0_529
*1310 FILLER_0_0_539
*1311 FILLER_0_0_54
*1312 FILLER_0_0_551
*1313 FILLER_0_0_559
*1314 FILLER_0_0_567
*1315 FILLER_0_0_57
*1316 FILLER_0_0_579
*1317 FILLER_0_0_587
*1318 FILLER_0_0_589
*1319 FILLER_0_0_601
*1320 FILLER_0_0_613
*1321 FILLER_0_0_65
*1322 FILLER_0_0_70
*1323 FILLER_0_0_82
*1324 FILLER_0_0_85
*1325 FILLER_0_0_97
*1326 FILLER_0_100_109
*1327 FILLER_0_100_121
*1328 FILLER_0_100_133
*1329 FILLER_0_100_139
*1330 FILLER_0_100_141
*1331 FILLER_0_100_15
*1332 FILLER_0_100_153
*1333 FILLER_0_100_165
*1334 FILLER_0_100_177
*1335 FILLER_0_100_189
*1336 FILLER_0_100_195
*1337 FILLER_0_100_197
*1338 FILLER_0_100_209
*1339 FILLER_0_100_221
*1340 FILLER_0_100_233
*1341 FILLER_0_100_245
*1342 FILLER_0_100_251
*1343 FILLER_0_100_253
*1344 FILLER_0_100_265
*1345 FILLER_0_100_27
*1346 FILLER_0_100_277
*1347 FILLER_0_100_289
*1348 FILLER_0_100_29
*1349 FILLER_0_100_3
*1350 FILLER_0_100_301
*1351 FILLER_0_100_307
*1352 FILLER_0_100_309
*1353 FILLER_0_100_321
*1354 FILLER_0_100_333
*1355 FILLER_0_100_345
*1356 FILLER_0_100_357
*1357 FILLER_0_100_363
*1358 FILLER_0_100_365
*1359 FILLER_0_100_377
*1360 FILLER_0_100_389
*1361 FILLER_0_100_401
*1362 FILLER_0_100_41
*1363 FILLER_0_100_413
*1364 FILLER_0_100_419
*1365 FILLER_0_100_421
*1366 FILLER_0_100_433
*1367 FILLER_0_100_445
*1368 FILLER_0_100_457
*1369 FILLER_0_100_469
*1370 FILLER_0_100_475
*1371 FILLER_0_100_477
*1372 FILLER_0_100_489
*1373 FILLER_0_100_501
*1374 FILLER_0_100_513
*1375 FILLER_0_100_525
*1376 FILLER_0_100_53
*1377 FILLER_0_100_531
*1378 FILLER_0_100_533
*1379 FILLER_0_100_545
*1380 FILLER_0_100_557
*1381 FILLER_0_100_569
*1382 FILLER_0_100_581
*1383 FILLER_0_100_587
*1384 FILLER_0_100_589
*1385 FILLER_0_100_601
*1386 FILLER_0_100_613
*1387 FILLER_0_100_65
*1388 FILLER_0_100_77
*1389 FILLER_0_100_83
*1390 FILLER_0_100_85
*1391 FILLER_0_100_97
*1392 FILLER_0_101_107
*1393 FILLER_0_101_111
*1394 FILLER_0_101_113
*1395 FILLER_0_101_125
*1396 FILLER_0_101_135
*1397 FILLER_0_101_139
*1398 FILLER_0_101_141
*1399 FILLER_0_101_149
*1400 FILLER_0_101_153
*1401 FILLER_0_101_165
*1402 FILLER_0_101_169
*1403 FILLER_0_101_177
*1404 FILLER_0_101_184
*1405 FILLER_0_101_197
*1406 FILLER_0_101_209
*1407 FILLER_0_101_21
*1408 FILLER_0_101_221
*1409 FILLER_0_101_225
*1410 FILLER_0_101_237
*1411 FILLER_0_101_249
*1412 FILLER_0_101_253
*1413 FILLER_0_101_265
*1414 FILLER_0_101_27
*1415 FILLER_0_101_277
*1416 FILLER_0_101_281
*1417 FILLER_0_101_289
*1418 FILLER_0_101_29
*1419 FILLER_0_101_294
*1420 FILLER_0_101_306
*1421 FILLER_0_101_309
*1422 FILLER_0_101_321
*1423 FILLER_0_101_333
*1424 FILLER_0_101_337
*1425 FILLER_0_101_345
*1426 FILLER_0_101_352
*1427 FILLER_0_101_365
*1428 FILLER_0_101_377
*1429 FILLER_0_101_389
*1430 FILLER_0_101_393
*1431 FILLER_0_101_405
*1432 FILLER_0_101_41
*1433 FILLER_0_101_417
*1434 FILLER_0_101_421
*1435 FILLER_0_101_433
*1436 FILLER_0_101_445
*1437 FILLER_0_101_449
*1438 FILLER_0_101_461
*1439 FILLER_0_101_473
*1440 FILLER_0_101_477
*1441 FILLER_0_101_482
*1442 FILLER_0_101_494
*1443 FILLER_0_101_502
*1444 FILLER_0_101_505
*1445 FILLER_0_101_51
*1446 FILLER_0_101_513
*1447 FILLER_0_101_517
*1448 FILLER_0_101_529
*1449 FILLER_0_101_533
*1450 FILLER_0_101_541
*1451 FILLER_0_101_55
*1452 FILLER_0_101_553
*1453 FILLER_0_101_559
*1454 FILLER_0_101_561
*1455 FILLER_0_101_57
*1456 FILLER_0_101_573
*1457 FILLER_0_101_585
*1458 FILLER_0_101_589
*1459 FILLER_0_101_601
*1460 FILLER_0_101_617
*1461 FILLER_0_101_69
*1462 FILLER_0_101_79
*1463 FILLER_0_101_83
*1464 FILLER_0_101_85
*1465 FILLER_0_101_9
*1466 FILLER_0_101_97
*1467 FILLER_0_10_109
*1468 FILLER_0_10_121
*1469 FILLER_0_10_133
*1470 FILLER_0_10_139
*1471 FILLER_0_10_141
*1472 FILLER_0_10_153
*1473 FILLER_0_10_165
*1474 FILLER_0_10_177
*1475 FILLER_0_10_189
*1476 FILLER_0_10_19
*1477 FILLER_0_10_195
*1478 FILLER_0_10_197
*1479 FILLER_0_10_209
*1480 FILLER_0_10_221
*1481 FILLER_0_10_233
*1482 FILLER_0_10_245
*1483 FILLER_0_10_251
*1484 FILLER_0_10_253
*1485 FILLER_0_10_259
*1486 FILLER_0_10_262
*1487 FILLER_0_10_266
*1488 FILLER_0_10_27
*1489 FILLER_0_10_270
*1490 FILLER_0_10_282
*1491 FILLER_0_10_29
*1492 FILLER_0_10_294
*1493 FILLER_0_10_306
*1494 FILLER_0_10_309
*1495 FILLER_0_10_321
*1496 FILLER_0_10_333
*1497 FILLER_0_10_345
*1498 FILLER_0_10_357
*1499 FILLER_0_10_363
*1500 FILLER_0_10_365
*1501 FILLER_0_10_377
*1502 FILLER_0_10_41
*1503 FILLER_0_10_421
*1504 FILLER_0_10_425
*1505 FILLER_0_10_437
*1506 FILLER_0_10_449
*1507 FILLER_0_10_461
*1508 FILLER_0_10_473
*1509 FILLER_0_10_477
*1510 FILLER_0_10_489
*1511 FILLER_0_10_501
*1512 FILLER_0_10_513
*1513 FILLER_0_10_525
*1514 FILLER_0_10_53
*1515 FILLER_0_10_531
*1516 FILLER_0_10_533
*1517 FILLER_0_10_545
*1518 FILLER_0_10_557
*1519 FILLER_0_10_569
*1520 FILLER_0_10_581
*1521 FILLER_0_10_587
*1522 FILLER_0_10_589
*1523 FILLER_0_10_601
*1524 FILLER_0_10_613
*1525 FILLER_0_10_65
*1526 FILLER_0_10_7
*1527 FILLER_0_10_77
*1528 FILLER_0_10_83
*1529 FILLER_0_10_85
*1530 FILLER_0_10_97
*1531 FILLER_0_11_105
*1532 FILLER_0_11_111
*1533 FILLER_0_11_113
*1534 FILLER_0_11_125
*1535 FILLER_0_11_137
*1536 FILLER_0_11_149
*1537 FILLER_0_11_15
*1538 FILLER_0_11_161
*1539 FILLER_0_11_167
*1540 FILLER_0_11_169
*1541 FILLER_0_11_181
*1542 FILLER_0_11_193
*1543 FILLER_0_11_205
*1544 FILLER_0_11_217
*1545 FILLER_0_11_223
*1546 FILLER_0_11_225
*1547 FILLER_0_11_233
*1548 FILLER_0_11_236
*1549 FILLER_0_11_240
*1550 FILLER_0_11_243
*1551 FILLER_0_11_247
*1552 FILLER_0_11_269
*1553 FILLER_0_11_27
*1554 FILLER_0_11_273
*1555 FILLER_0_11_277
*1556 FILLER_0_11_289
*1557 FILLER_0_11_293
*1558 FILLER_0_11_296
*1559 FILLER_0_11_3
*1560 FILLER_0_11_300
*1561 FILLER_0_11_312
*1562 FILLER_0_11_316
*1563 FILLER_0_11_328
*1564 FILLER_0_11_337
*1565 FILLER_0_11_349
*1566 FILLER_0_11_361
*1567 FILLER_0_11_373
*1568 FILLER_0_11_39
*1569 FILLER_0_11_390
*1570 FILLER_0_11_417
*1571 FILLER_0_11_429
*1572 FILLER_0_11_441
*1573 FILLER_0_11_447
*1574 FILLER_0_11_449
*1575 FILLER_0_11_461
*1576 FILLER_0_11_473
*1577 FILLER_0_11_485
*1578 FILLER_0_11_497
*1579 FILLER_0_11_503
*1580 FILLER_0_11_505
*1581 FILLER_0_11_51
*1582 FILLER_0_11_517
*1583 FILLER_0_11_529
*1584 FILLER_0_11_541
*1585 FILLER_0_11_55
*1586 FILLER_0_11_553
*1587 FILLER_0_11_559
*1588 FILLER_0_11_561
*1589 FILLER_0_11_57
*1590 FILLER_0_11_573
*1591 FILLER_0_11_585
*1592 FILLER_0_11_597
*1593 FILLER_0_11_609
*1594 FILLER_0_11_615
*1595 FILLER_0_11_617
*1596 FILLER_0_11_69
*1597 FILLER_0_11_81
*1598 FILLER_0_11_93
*1599 FILLER_0_12_109
*1600 FILLER_0_12_121
*1601 FILLER_0_12_133
*1602 FILLER_0_12_139
*1603 FILLER_0_12_141
*1604 FILLER_0_12_15
*1605 FILLER_0_12_153
*1606 FILLER_0_12_165
*1607 FILLER_0_12_177
*1608 FILLER_0_12_189
*1609 FILLER_0_12_195
*1610 FILLER_0_12_197
*1611 FILLER_0_12_209
*1612 FILLER_0_12_221
*1613 FILLER_0_12_232
*1614 FILLER_0_12_253
*1615 FILLER_0_12_262
*1616 FILLER_0_12_27
*1617 FILLER_0_12_271
*1618 FILLER_0_12_29
*1619 FILLER_0_12_295
*1620 FILLER_0_12_299
*1621 FILLER_0_12_3
*1622 FILLER_0_12_303
*1623 FILLER_0_12_309
*1624 FILLER_0_12_314
*1625 FILLER_0_12_324
*1626 FILLER_0_12_336
*1627 FILLER_0_12_348
*1628 FILLER_0_12_354
*1629 FILLER_0_12_362
*1630 FILLER_0_12_41
*1631 FILLER_0_12_412
*1632 FILLER_0_12_416
*1633 FILLER_0_12_421
*1634 FILLER_0_12_433
*1635 FILLER_0_12_445
*1636 FILLER_0_12_457
*1637 FILLER_0_12_469
*1638 FILLER_0_12_475
*1639 FILLER_0_12_477
*1640 FILLER_0_12_489
*1641 FILLER_0_12_501
*1642 FILLER_0_12_513
*1643 FILLER_0_12_525
*1644 FILLER_0_12_53
*1645 FILLER_0_12_531
*1646 FILLER_0_12_533
*1647 FILLER_0_12_545
*1648 FILLER_0_12_557
*1649 FILLER_0_12_569
*1650 FILLER_0_12_581
*1651 FILLER_0_12_587
*1652 FILLER_0_12_589
*1653 FILLER_0_12_601
*1654 FILLER_0_12_613
*1655 FILLER_0_12_65
*1656 FILLER_0_12_77
*1657 FILLER_0_12_83
*1658 FILLER_0_12_85
*1659 FILLER_0_12_97
*1660 FILLER_0_13_105
*1661 FILLER_0_13_111
*1662 FILLER_0_13_113
*1663 FILLER_0_13_125
*1664 FILLER_0_13_137
*1665 FILLER_0_13_149
*1666 FILLER_0_13_15
*1667 FILLER_0_13_161
*1668 FILLER_0_13_167
*1669 FILLER_0_13_169
*1670 FILLER_0_13_181
*1671 FILLER_0_13_193
*1672 FILLER_0_13_205
*1673 FILLER_0_13_217
*1674 FILLER_0_13_223
*1675 FILLER_0_13_233
*1676 FILLER_0_13_237
*1677 FILLER_0_13_259
*1678 FILLER_0_13_27
*1679 FILLER_0_13_281
*1680 FILLER_0_13_3
*1681 FILLER_0_13_337
*1682 FILLER_0_13_349
*1683 FILLER_0_13_361
*1684 FILLER_0_13_39
*1685 FILLER_0_13_390
*1686 FILLER_0_13_393
*1687 FILLER_0_13_411
*1688 FILLER_0_13_415
*1689 FILLER_0_13_419
*1690 FILLER_0_13_423
*1691 FILLER_0_13_435
*1692 FILLER_0_13_447
*1693 FILLER_0_13_449
*1694 FILLER_0_13_461
*1695 FILLER_0_13_473
*1696 FILLER_0_13_485
*1697 FILLER_0_13_497
*1698 FILLER_0_13_503
*1699 FILLER_0_13_505
*1700 FILLER_0_13_51
*1701 FILLER_0_13_517
*1702 FILLER_0_13_529
*1703 FILLER_0_13_541
*1704 FILLER_0_13_55
*1705 FILLER_0_13_553
*1706 FILLER_0_13_559
*1707 FILLER_0_13_561
*1708 FILLER_0_13_57
*1709 FILLER_0_13_573
*1710 FILLER_0_13_585
*1711 FILLER_0_13_597
*1712 FILLER_0_13_609
*1713 FILLER_0_13_615
*1714 FILLER_0_13_617
*1715 FILLER_0_13_69
*1716 FILLER_0_13_81
*1717 FILLER_0_13_93
*1718 FILLER_0_14_109
*1719 FILLER_0_14_121
*1720 FILLER_0_14_133
*1721 FILLER_0_14_139
*1722 FILLER_0_14_141
*1723 FILLER_0_14_15
*1724 FILLER_0_14_153
*1725 FILLER_0_14_165
*1726 FILLER_0_14_177
*1727 FILLER_0_14_189
*1728 FILLER_0_14_195
*1729 FILLER_0_14_197
*1730 FILLER_0_14_209
*1731 FILLER_0_14_239
*1732 FILLER_0_14_243
*1733 FILLER_0_14_27
*1734 FILLER_0_14_29
*1735 FILLER_0_14_3
*1736 FILLER_0_14_306
*1737 FILLER_0_14_309
*1738 FILLER_0_14_343
*1739 FILLER_0_14_351
*1740 FILLER_0_14_355
*1741 FILLER_0_14_359
*1742 FILLER_0_14_363
*1743 FILLER_0_14_365
*1744 FILLER_0_14_369
*1745 FILLER_0_14_376
*1746 FILLER_0_14_380
*1747 FILLER_0_14_391
*1748 FILLER_0_14_395
*1749 FILLER_0_14_41
*1750 FILLER_0_14_417
*1751 FILLER_0_14_444
*1752 FILLER_0_14_456
*1753 FILLER_0_14_468
*1754 FILLER_0_14_477
*1755 FILLER_0_14_489
*1756 FILLER_0_14_501
*1757 FILLER_0_14_513
*1758 FILLER_0_14_525
*1759 FILLER_0_14_53
*1760 FILLER_0_14_531
*1761 FILLER_0_14_533
*1762 FILLER_0_14_545
*1763 FILLER_0_14_557
*1764 FILLER_0_14_569
*1765 FILLER_0_14_581
*1766 FILLER_0_14_587
*1767 FILLER_0_14_589
*1768 FILLER_0_14_601
*1769 FILLER_0_14_613
*1770 FILLER_0_14_65
*1771 FILLER_0_14_77
*1772 FILLER_0_14_83
*1773 FILLER_0_14_85
*1774 FILLER_0_14_97
*1775 FILLER_0_15_105
*1776 FILLER_0_15_111
*1777 FILLER_0_15_113
*1778 FILLER_0_15_125
*1779 FILLER_0_15_13
*1780 FILLER_0_15_137
*1781 FILLER_0_15_149
*1782 FILLER_0_15_161
*1783 FILLER_0_15_167
*1784 FILLER_0_15_169
*1785 FILLER_0_15_181
*1786 FILLER_0_15_193
*1787 FILLER_0_15_205
*1788 FILLER_0_15_219
*1789 FILLER_0_15_223
*1790 FILLER_0_15_225
*1791 FILLER_0_15_25
*1792 FILLER_0_15_265
*1793 FILLER_0_15_278
*1794 FILLER_0_15_281
*1795 FILLER_0_15_286
*1796 FILLER_0_15_291
*1797 FILLER_0_15_297
*1798 FILLER_0_15_334
*1799 FILLER_0_15_337
*1800 FILLER_0_15_345
*1801 FILLER_0_15_349
*1802 FILLER_0_15_365
*1803 FILLER_0_15_369
*1804 FILLER_0_15_37
*1805 FILLER_0_15_373
*1806 FILLER_0_15_377
*1807 FILLER_0_15_381
*1808 FILLER_0_15_391
*1809 FILLER_0_15_417
*1810 FILLER_0_15_421
*1811 FILLER_0_15_425
*1812 FILLER_0_15_437
*1813 FILLER_0_15_445
*1814 FILLER_0_15_449
*1815 FILLER_0_15_461
*1816 FILLER_0_15_473
*1817 FILLER_0_15_485
*1818 FILLER_0_15_49
*1819 FILLER_0_15_497
*1820 FILLER_0_15_503
*1821 FILLER_0_15_505
*1822 FILLER_0_15_517
*1823 FILLER_0_15_529
*1824 FILLER_0_15_541
*1825 FILLER_0_15_55
*1826 FILLER_0_15_553
*1827 FILLER_0_15_559
*1828 FILLER_0_15_561
*1829 FILLER_0_15_57
*1830 FILLER_0_15_573
*1831 FILLER_0_15_585
*1832 FILLER_0_15_597
*1833 FILLER_0_15_609
*1834 FILLER_0_15_615
*1835 FILLER_0_15_617
*1836 FILLER_0_15_69
*1837 FILLER_0_15_81
*1838 FILLER_0_15_9
*1839 FILLER_0_15_93
*1840 FILLER_0_16_109
*1841 FILLER_0_16_121
*1842 FILLER_0_16_133
*1843 FILLER_0_16_139
*1844 FILLER_0_16_141
*1845 FILLER_0_16_15
*1846 FILLER_0_16_153
*1847 FILLER_0_16_165
*1848 FILLER_0_16_177
*1849 FILLER_0_16_189
*1850 FILLER_0_16_195
*1851 FILLER_0_16_197
*1852 FILLER_0_16_201
*1853 FILLER_0_16_251
*1854 FILLER_0_16_253
*1855 FILLER_0_16_27
*1856 FILLER_0_16_29
*1857 FILLER_0_16_291
*1858 FILLER_0_16_295
*1859 FILLER_0_16_3
*1860 FILLER_0_16_300
*1861 FILLER_0_16_304
*1862 FILLER_0_16_312
*1863 FILLER_0_16_316
*1864 FILLER_0_16_320
*1865 FILLER_0_16_324
*1866 FILLER_0_16_329
*1867 FILLER_0_16_343
*1868 FILLER_0_16_347
*1869 FILLER_0_16_363
*1870 FILLER_0_16_379
*1871 FILLER_0_16_388
*1872 FILLER_0_16_392
*1873 FILLER_0_16_41
*1874 FILLER_0_16_411
*1875 FILLER_0_16_415
*1876 FILLER_0_16_419
*1877 FILLER_0_16_421
*1878 FILLER_0_16_433
*1879 FILLER_0_16_445
*1880 FILLER_0_16_457
*1881 FILLER_0_16_469
*1882 FILLER_0_16_475
*1883 FILLER_0_16_477
*1884 FILLER_0_16_489
*1885 FILLER_0_16_501
*1886 FILLER_0_16_513
*1887 FILLER_0_16_525
*1888 FILLER_0_16_53
*1889 FILLER_0_16_531
*1890 FILLER_0_16_533
*1891 FILLER_0_16_545
*1892 FILLER_0_16_557
*1893 FILLER_0_16_569
*1894 FILLER_0_16_581
*1895 FILLER_0_16_587
*1896 FILLER_0_16_589
*1897 FILLER_0_16_601
*1898 FILLER_0_16_613
*1899 FILLER_0_16_65
*1900 FILLER_0_16_77
*1901 FILLER_0_16_83
*1902 FILLER_0_16_85
*1903 FILLER_0_16_97
*1904 FILLER_0_17_105
*1905 FILLER_0_17_111
*1906 FILLER_0_17_113
*1907 FILLER_0_17_125
*1908 FILLER_0_17_137
*1909 FILLER_0_17_149
*1910 FILLER_0_17_15
*1911 FILLER_0_17_161
*1912 FILLER_0_17_167
*1913 FILLER_0_17_169
*1914 FILLER_0_17_181
*1915 FILLER_0_17_193
*1916 FILLER_0_17_205
*1917 FILLER_0_17_208
*1918 FILLER_0_17_212
*1919 FILLER_0_17_223
*1920 FILLER_0_17_225
*1921 FILLER_0_17_257
*1922 FILLER_0_17_27
*1923 FILLER_0_17_279
*1924 FILLER_0_17_288
*1925 FILLER_0_17_292
*1926 FILLER_0_17_296
*1927 FILLER_0_17_3
*1928 FILLER_0_17_308
*1929 FILLER_0_17_320
*1930 FILLER_0_17_332
*1931 FILLER_0_17_345
*1932 FILLER_0_17_39
*1933 FILLER_0_17_390
*1934 FILLER_0_17_393
*1935 FILLER_0_17_397
*1936 FILLER_0_17_401
*1937 FILLER_0_17_405
*1938 FILLER_0_17_409
*1939 FILLER_0_17_421
*1940 FILLER_0_17_433
*1941 FILLER_0_17_445
*1942 FILLER_0_17_449
*1943 FILLER_0_17_461
*1944 FILLER_0_17_473
*1945 FILLER_0_17_485
*1946 FILLER_0_17_497
*1947 FILLER_0_17_503
*1948 FILLER_0_17_505
*1949 FILLER_0_17_51
*1950 FILLER_0_17_517
*1951 FILLER_0_17_529
*1952 FILLER_0_17_541
*1953 FILLER_0_17_55
*1954 FILLER_0_17_553
*1955 FILLER_0_17_559
*1956 FILLER_0_17_561
*1957 FILLER_0_17_57
*1958 FILLER_0_17_573
*1959 FILLER_0_17_585
*1960 FILLER_0_17_597
*1961 FILLER_0_17_609
*1962 FILLER_0_17_615
*1963 FILLER_0_17_617
*1964 FILLER_0_17_69
*1965 FILLER_0_17_81
*1966 FILLER_0_17_93
*1967 FILLER_0_18_109
*1968 FILLER_0_18_121
*1969 FILLER_0_18_133
*1970 FILLER_0_18_139
*1971 FILLER_0_18_141
*1972 FILLER_0_18_15
*1973 FILLER_0_18_153
*1974 FILLER_0_18_165
*1975 FILLER_0_18_177
*1976 FILLER_0_18_189
*1977 FILLER_0_18_195
*1978 FILLER_0_18_197
*1979 FILLER_0_18_203
*1980 FILLER_0_18_206
*1981 FILLER_0_18_222
*1982 FILLER_0_18_249
*1983 FILLER_0_18_260
*1984 FILLER_0_18_264
*1985 FILLER_0_18_27
*1986 FILLER_0_18_285
*1987 FILLER_0_18_289
*1988 FILLER_0_18_29
*1989 FILLER_0_18_3
*1990 FILLER_0_18_301
*1991 FILLER_0_18_307
*1992 FILLER_0_18_309
*1993 FILLER_0_18_317
*1994 FILLER_0_18_326
*1995 FILLER_0_18_338
*1996 FILLER_0_18_376
*1997 FILLER_0_18_380
*1998 FILLER_0_18_384
*1999 FILLER_0_18_41
*2000 FILLER_0_18_411
*2001 FILLER_0_18_415
*2002 FILLER_0_18_441
*2003 FILLER_0_18_445
*2004 FILLER_0_18_457
*2005 FILLER_0_18_469
*2006 FILLER_0_18_475
*2007 FILLER_0_18_477
*2008 FILLER_0_18_489
*2009 FILLER_0_18_501
*2010 FILLER_0_18_513
*2011 FILLER_0_18_525
*2012 FILLER_0_18_53
*2013 FILLER_0_18_531
*2014 FILLER_0_18_533
*2015 FILLER_0_18_545
*2016 FILLER_0_18_557
*2017 FILLER_0_18_569
*2018 FILLER_0_18_581
*2019 FILLER_0_18_587
*2020 FILLER_0_18_589
*2021 FILLER_0_18_601
*2022 FILLER_0_18_613
*2023 FILLER_0_18_65
*2024 FILLER_0_18_77
*2025 FILLER_0_18_83
*2026 FILLER_0_18_85
*2027 FILLER_0_18_97
*2028 FILLER_0_19_105
*2029 FILLER_0_19_111
*2030 FILLER_0_19_113
*2031 FILLER_0_19_125
*2032 FILLER_0_19_137
*2033 FILLER_0_19_149
*2034 FILLER_0_19_15
*2035 FILLER_0_19_161
*2036 FILLER_0_19_167
*2037 FILLER_0_19_169
*2038 FILLER_0_19_181
*2039 FILLER_0_19_193
*2040 FILLER_0_19_199
*2041 FILLER_0_19_220
*2042 FILLER_0_19_233
*2043 FILLER_0_19_27
*2044 FILLER_0_19_277
*2045 FILLER_0_19_281
*2046 FILLER_0_19_285
*2047 FILLER_0_19_296
*2048 FILLER_0_19_3
*2049 FILLER_0_19_302
*2050 FILLER_0_19_306
*2051 FILLER_0_19_314
*2052 FILLER_0_19_323
*2053 FILLER_0_19_335
*2054 FILLER_0_19_337
*2055 FILLER_0_19_364
*2056 FILLER_0_19_368
*2057 FILLER_0_19_388
*2058 FILLER_0_19_39
*2059 FILLER_0_19_393
*2060 FILLER_0_19_397
*2061 FILLER_0_19_401
*2062 FILLER_0_19_405
*2063 FILLER_0_19_445
*2064 FILLER_0_19_449
*2065 FILLER_0_19_461
*2066 FILLER_0_19_473
*2067 FILLER_0_19_485
*2068 FILLER_0_19_497
*2069 FILLER_0_19_503
*2070 FILLER_0_19_505
*2071 FILLER_0_19_51
*2072 FILLER_0_19_517
*2073 FILLER_0_19_529
*2074 FILLER_0_19_541
*2075 FILLER_0_19_55
*2076 FILLER_0_19_553
*2077 FILLER_0_19_559
*2078 FILLER_0_19_561
*2079 FILLER_0_19_57
*2080 FILLER_0_19_573
*2081 FILLER_0_19_585
*2082 FILLER_0_19_597
*2083 FILLER_0_19_609
*2084 FILLER_0_19_615
*2085 FILLER_0_19_617
*2086 FILLER_0_19_69
*2087 FILLER_0_19_81
*2088 FILLER_0_19_93
*2089 FILLER_0_1_105
*2090 FILLER_0_1_111
*2091 FILLER_0_1_113
*2092 FILLER_0_1_125
*2093 FILLER_0_1_137
*2094 FILLER_0_1_149
*2095 FILLER_0_1_15
*2096 FILLER_0_1_161
*2097 FILLER_0_1_167
*2098 FILLER_0_1_169
*2099 FILLER_0_1_181
*2100 FILLER_0_1_193
*2101 FILLER_0_1_205
*2102 FILLER_0_1_217
*2103 FILLER_0_1_223
*2104 FILLER_0_1_225
*2105 FILLER_0_1_237
*2106 FILLER_0_1_249
*2107 FILLER_0_1_261
*2108 FILLER_0_1_27
*2109 FILLER_0_1_273
*2110 FILLER_0_1_279
*2111 FILLER_0_1_281
*2112 FILLER_0_1_293
*2113 FILLER_0_1_3
*2114 FILLER_0_1_305
*2115 FILLER_0_1_317
*2116 FILLER_0_1_329
*2117 FILLER_0_1_335
*2118 FILLER_0_1_337
*2119 FILLER_0_1_349
*2120 FILLER_0_1_361
*2121 FILLER_0_1_373
*2122 FILLER_0_1_385
*2123 FILLER_0_1_39
*2124 FILLER_0_1_391
*2125 FILLER_0_1_393
*2126 FILLER_0_1_405
*2127 FILLER_0_1_417
*2128 FILLER_0_1_429
*2129 FILLER_0_1_441
*2130 FILLER_0_1_447
*2131 FILLER_0_1_449
*2132 FILLER_0_1_461
*2133 FILLER_0_1_473
*2134 FILLER_0_1_485
*2135 FILLER_0_1_497
*2136 FILLER_0_1_503
*2137 FILLER_0_1_505
*2138 FILLER_0_1_51
*2139 FILLER_0_1_517
*2140 FILLER_0_1_529
*2141 FILLER_0_1_541
*2142 FILLER_0_1_55
*2143 FILLER_0_1_553
*2144 FILLER_0_1_559
*2145 FILLER_0_1_561
*2146 FILLER_0_1_57
*2147 FILLER_0_1_573
*2148 FILLER_0_1_585
*2149 FILLER_0_1_597
*2150 FILLER_0_1_609
*2151 FILLER_0_1_615
*2152 FILLER_0_1_617
*2153 FILLER_0_1_69
*2154 FILLER_0_1_81
*2155 FILLER_0_1_93
*2156 FILLER_0_20_109
*2157 FILLER_0_20_121
*2158 FILLER_0_20_133
*2159 FILLER_0_20_139
*2160 FILLER_0_20_141
*2161 FILLER_0_20_15
*2162 FILLER_0_20_153
*2163 FILLER_0_20_165
*2164 FILLER_0_20_177
*2165 FILLER_0_20_189
*2166 FILLER_0_20_193
*2167 FILLER_0_20_213
*2168 FILLER_0_20_217
*2169 FILLER_0_20_226
*2170 FILLER_0_20_236
*2171 FILLER_0_20_244
*2172 FILLER_0_20_248
*2173 FILLER_0_20_265
*2174 FILLER_0_20_27
*2175 FILLER_0_20_274
*2176 FILLER_0_20_278
*2177 FILLER_0_20_282
*2178 FILLER_0_20_29
*2179 FILLER_0_20_290
*2180 FILLER_0_20_3
*2181 FILLER_0_20_306
*2182 FILLER_0_20_320
*2183 FILLER_0_20_330
*2184 FILLER_0_20_342
*2185 FILLER_0_20_350
*2186 FILLER_0_20_354
*2187 FILLER_0_20_358
*2188 FILLER_0_20_363
*2189 FILLER_0_20_372
*2190 FILLER_0_20_376
*2191 FILLER_0_20_380
*2192 FILLER_0_20_384
*2193 FILLER_0_20_392
*2194 FILLER_0_20_398
*2195 FILLER_0_20_41
*2196 FILLER_0_20_413
*2197 FILLER_0_20_421
*2198 FILLER_0_20_465
*2199 FILLER_0_20_473
*2200 FILLER_0_20_477
*2201 FILLER_0_20_489
*2202 FILLER_0_20_501
*2203 FILLER_0_20_513
*2204 FILLER_0_20_525
*2205 FILLER_0_20_53
*2206 FILLER_0_20_531
*2207 FILLER_0_20_533
*2208 FILLER_0_20_545
*2209 FILLER_0_20_557
*2210 FILLER_0_20_569
*2211 FILLER_0_20_581
*2212 FILLER_0_20_587
*2213 FILLER_0_20_589
*2214 FILLER_0_20_601
*2215 FILLER_0_20_616
*2216 FILLER_0_20_624
*2217 FILLER_0_20_65
*2218 FILLER_0_20_77
*2219 FILLER_0_20_83
*2220 FILLER_0_20_85
*2221 FILLER_0_20_97
*2222 FILLER_0_21_105
*2223 FILLER_0_21_111
*2224 FILLER_0_21_113
*2225 FILLER_0_21_125
*2226 FILLER_0_21_137
*2227 FILLER_0_21_149
*2228 FILLER_0_21_15
*2229 FILLER_0_21_161
*2230 FILLER_0_21_167
*2231 FILLER_0_21_169
*2232 FILLER_0_21_220
*2233 FILLER_0_21_233
*2234 FILLER_0_21_241
*2235 FILLER_0_21_266
*2236 FILLER_0_21_27
*2237 FILLER_0_21_270
*2238 FILLER_0_21_278
*2239 FILLER_0_21_281
*2240 FILLER_0_21_293
*2241 FILLER_0_21_299
*2242 FILLER_0_21_3
*2243 FILLER_0_21_344
*2244 FILLER_0_21_356
*2245 FILLER_0_21_362
*2246 FILLER_0_21_365
*2247 FILLER_0_21_370
*2248 FILLER_0_21_376
*2249 FILLER_0_21_380
*2250 FILLER_0_21_384
*2251 FILLER_0_21_388
*2252 FILLER_0_21_39
*2253 FILLER_0_21_393
*2254 FILLER_0_21_413
*2255 FILLER_0_21_434
*2256 FILLER_0_21_438
*2257 FILLER_0_21_446
*2258 FILLER_0_21_452
*2259 FILLER_0_21_464
*2260 FILLER_0_21_472
*2261 FILLER_0_21_477
*2262 FILLER_0_21_481
*2263 FILLER_0_21_493
*2264 FILLER_0_21_501
*2265 FILLER_0_21_505
*2266 FILLER_0_21_51
*2267 FILLER_0_21_517
*2268 FILLER_0_21_529
*2269 FILLER_0_21_541
*2270 FILLER_0_21_546
*2271 FILLER_0_21_55
*2272 FILLER_0_21_558
*2273 FILLER_0_21_561
*2274 FILLER_0_21_57
*2275 FILLER_0_21_573
*2276 FILLER_0_21_585
*2277 FILLER_0_21_597
*2278 FILLER_0_21_609
*2279 FILLER_0_21_615
*2280 FILLER_0_21_617
*2281 FILLER_0_21_69
*2282 FILLER_0_21_81
*2283 FILLER_0_21_93
*2284 FILLER_0_22_109
*2285 FILLER_0_22_121
*2286 FILLER_0_22_133
*2287 FILLER_0_22_139
*2288 FILLER_0_22_141
*2289 FILLER_0_22_15
*2290 FILLER_0_22_153
*2291 FILLER_0_22_165
*2292 FILLER_0_22_177
*2293 FILLER_0_22_189
*2294 FILLER_0_22_248
*2295 FILLER_0_22_253
*2296 FILLER_0_22_267
*2297 FILLER_0_22_27
*2298 FILLER_0_22_273
*2299 FILLER_0_22_276
*2300 FILLER_0_22_280
*2301 FILLER_0_22_29
*2302 FILLER_0_22_3
*2303 FILLER_0_22_301
*2304 FILLER_0_22_323
*2305 FILLER_0_22_339
*2306 FILLER_0_22_351
*2307 FILLER_0_22_355
*2308 FILLER_0_22_358
*2309 FILLER_0_22_41
*2310 FILLER_0_22_410
*2311 FILLER_0_22_441
*2312 FILLER_0_22_453
*2313 FILLER_0_22_461
*2314 FILLER_0_22_466
*2315 FILLER_0_22_470
*2316 FILLER_0_22_475
*2317 FILLER_0_22_487
*2318 FILLER_0_22_491
*2319 FILLER_0_22_503
*2320 FILLER_0_22_515
*2321 FILLER_0_22_527
*2322 FILLER_0_22_53
*2323 FILLER_0_22_531
*2324 FILLER_0_22_533
*2325 FILLER_0_22_545
*2326 FILLER_0_22_557
*2327 FILLER_0_22_569
*2328 FILLER_0_22_581
*2329 FILLER_0_22_587
*2330 FILLER_0_22_589
*2331 FILLER_0_22_601
*2332 FILLER_0_22_616
*2333 FILLER_0_22_624
*2334 FILLER_0_22_65
*2335 FILLER_0_22_77
*2336 FILLER_0_22_83
*2337 FILLER_0_22_85
*2338 FILLER_0_22_97
*2339 FILLER_0_23_105
*2340 FILLER_0_23_111
*2341 FILLER_0_23_113
*2342 FILLER_0_23_125
*2343 FILLER_0_23_137
*2344 FILLER_0_23_149
*2345 FILLER_0_23_15
*2346 FILLER_0_23_161
*2347 FILLER_0_23_167
*2348 FILLER_0_23_169
*2349 FILLER_0_23_186
*2350 FILLER_0_23_192
*2351 FILLER_0_23_196
*2352 FILLER_0_23_200
*2353 FILLER_0_23_225
*2354 FILLER_0_23_27
*2355 FILLER_0_23_279
*2356 FILLER_0_23_296
*2357 FILLER_0_23_3
*2358 FILLER_0_23_308
*2359 FILLER_0_23_320
*2360 FILLER_0_23_324
*2361 FILLER_0_23_328
*2362 FILLER_0_23_337
*2363 FILLER_0_23_356
*2364 FILLER_0_23_366
*2365 FILLER_0_23_39
*2366 FILLER_0_23_391
*2367 FILLER_0_23_403
*2368 FILLER_0_23_407
*2369 FILLER_0_23_431
*2370 FILLER_0_23_435
*2371 FILLER_0_23_447
*2372 FILLER_0_23_449
*2373 FILLER_0_23_453
*2374 FILLER_0_23_499
*2375 FILLER_0_23_503
*2376 FILLER_0_23_505
*2377 FILLER_0_23_51
*2378 FILLER_0_23_517
*2379 FILLER_0_23_529
*2380 FILLER_0_23_541
*2381 FILLER_0_23_55
*2382 FILLER_0_23_553
*2383 FILLER_0_23_559
*2384 FILLER_0_23_561
*2385 FILLER_0_23_57
*2386 FILLER_0_23_573
*2387 FILLER_0_23_585
*2388 FILLER_0_23_597
*2389 FILLER_0_23_609
*2390 FILLER_0_23_615
*2391 FILLER_0_23_617
*2392 FILLER_0_23_69
*2393 FILLER_0_23_81
*2394 FILLER_0_23_93
*2395 FILLER_0_24_109
*2396 FILLER_0_24_121
*2397 FILLER_0_24_133
*2398 FILLER_0_24_139
*2399 FILLER_0_24_141
*2400 FILLER_0_24_15
*2401 FILLER_0_24_153
*2402 FILLER_0_24_165
*2403 FILLER_0_24_177
*2404 FILLER_0_24_192
*2405 FILLER_0_24_197
*2406 FILLER_0_24_241
*2407 FILLER_0_24_245
*2408 FILLER_0_24_251
*2409 FILLER_0_24_262
*2410 FILLER_0_24_266
*2411 FILLER_0_24_27
*2412 FILLER_0_24_281
*2413 FILLER_0_24_289
*2414 FILLER_0_24_29
*2415 FILLER_0_24_294
*2416 FILLER_0_24_3
*2417 FILLER_0_24_306
*2418 FILLER_0_24_309
*2419 FILLER_0_24_321
*2420 FILLER_0_24_333
*2421 FILLER_0_24_345
*2422 FILLER_0_24_357
*2423 FILLER_0_24_360
*2424 FILLER_0_24_372
*2425 FILLER_0_24_384
*2426 FILLER_0_24_390
*2427 FILLER_0_24_394
*2428 FILLER_0_24_41
*2429 FILLER_0_24_427
*2430 FILLER_0_24_431
*2431 FILLER_0_24_461
*2432 FILLER_0_24_489
*2433 FILLER_0_24_493
*2434 FILLER_0_24_505
*2435 FILLER_0_24_517
*2436 FILLER_0_24_529
*2437 FILLER_0_24_53
*2438 FILLER_0_24_533
*2439 FILLER_0_24_545
*2440 FILLER_0_24_557
*2441 FILLER_0_24_569
*2442 FILLER_0_24_581
*2443 FILLER_0_24_587
*2444 FILLER_0_24_589
*2445 FILLER_0_24_601
*2446 FILLER_0_24_613
*2447 FILLER_0_24_65
*2448 FILLER_0_24_77
*2449 FILLER_0_24_83
*2450 FILLER_0_24_85
*2451 FILLER_0_24_97
*2452 FILLER_0_25_105
*2453 FILLER_0_25_111
*2454 FILLER_0_25_113
*2455 FILLER_0_25_125
*2456 FILLER_0_25_137
*2457 FILLER_0_25_149
*2458 FILLER_0_25_161
*2459 FILLER_0_25_167
*2460 FILLER_0_25_169
*2461 FILLER_0_25_18
*2462 FILLER_0_25_181
*2463 FILLER_0_25_193
*2464 FILLER_0_25_205
*2465 FILLER_0_25_213
*2466 FILLER_0_25_216
*2467 FILLER_0_25_220
*2468 FILLER_0_25_239
*2469 FILLER_0_25_262
*2470 FILLER_0_25_266
*2471 FILLER_0_25_278
*2472 FILLER_0_25_30
*2473 FILLER_0_25_301
*2474 FILLER_0_25_313
*2475 FILLER_0_25_319
*2476 FILLER_0_25_333
*2477 FILLER_0_25_337
*2478 FILLER_0_25_349
*2479 FILLER_0_25_361
*2480 FILLER_0_25_373
*2481 FILLER_0_25_385
*2482 FILLER_0_25_419
*2483 FILLER_0_25_42
*2484 FILLER_0_25_423
*2485 FILLER_0_25_458
*2486 FILLER_0_25_479
*2487 FILLER_0_25_483
*2488 FILLER_0_25_487
*2489 FILLER_0_25_491
*2490 FILLER_0_25_503
*2491 FILLER_0_25_505
*2492 FILLER_0_25_517
*2493 FILLER_0_25_529
*2494 FILLER_0_25_54
*2495 FILLER_0_25_541
*2496 FILLER_0_25_553
*2497 FILLER_0_25_559
*2498 FILLER_0_25_561
*2499 FILLER_0_25_57
*2500 FILLER_0_25_573
*2501 FILLER_0_25_585
*2502 FILLER_0_25_597
*2503 FILLER_0_25_6
*2504 FILLER_0_25_609
*2505 FILLER_0_25_615
*2506 FILLER_0_25_617
*2507 FILLER_0_25_69
*2508 FILLER_0_25_81
*2509 FILLER_0_25_93
*2510 FILLER_0_26_109
*2511 FILLER_0_26_121
*2512 FILLER_0_26_133
*2513 FILLER_0_26_139
*2514 FILLER_0_26_141
*2515 FILLER_0_26_15
*2516 FILLER_0_26_153
*2517 FILLER_0_26_161
*2518 FILLER_0_26_184
*2519 FILLER_0_26_188
*2520 FILLER_0_26_197
*2521 FILLER_0_26_201
*2522 FILLER_0_26_204
*2523 FILLER_0_26_223
*2524 FILLER_0_26_227
*2525 FILLER_0_26_231
*2526 FILLER_0_26_235
*2527 FILLER_0_26_239
*2528 FILLER_0_26_251
*2529 FILLER_0_26_253
*2530 FILLER_0_26_257
*2531 FILLER_0_26_262
*2532 FILLER_0_26_27
*2533 FILLER_0_26_274
*2534 FILLER_0_26_282
*2535 FILLER_0_26_29
*2536 FILLER_0_26_297
*2537 FILLER_0_26_3
*2538 FILLER_0_26_305
*2539 FILLER_0_26_309
*2540 FILLER_0_26_326
*2541 FILLER_0_26_340
*2542 FILLER_0_26_365
*2543 FILLER_0_26_369
*2544 FILLER_0_26_381
*2545 FILLER_0_26_41
*2546 FILLER_0_26_414
*2547 FILLER_0_26_418
*2548 FILLER_0_26_421
*2549 FILLER_0_26_425
*2550 FILLER_0_26_429
*2551 FILLER_0_26_454
*2552 FILLER_0_26_477
*2553 FILLER_0_26_481
*2554 FILLER_0_26_493
*2555 FILLER_0_26_505
*2556 FILLER_0_26_513
*2557 FILLER_0_26_518
*2558 FILLER_0_26_53
*2559 FILLER_0_26_530
*2560 FILLER_0_26_533
*2561 FILLER_0_26_545
*2562 FILLER_0_26_557
*2563 FILLER_0_26_569
*2564 FILLER_0_26_581
*2565 FILLER_0_26_587
*2566 FILLER_0_26_589
*2567 FILLER_0_26_601
*2568 FILLER_0_26_613
*2569 FILLER_0_26_65
*2570 FILLER_0_26_77
*2571 FILLER_0_26_83
*2572 FILLER_0_26_85
*2573 FILLER_0_26_97
*2574 FILLER_0_27_105
*2575 FILLER_0_27_111
*2576 FILLER_0_27_113
*2577 FILLER_0_27_125
*2578 FILLER_0_27_137
*2579 FILLER_0_27_149
*2580 FILLER_0_27_15
*2581 FILLER_0_27_161
*2582 FILLER_0_27_167
*2583 FILLER_0_27_169
*2584 FILLER_0_27_202
*2585 FILLER_0_27_223
*2586 FILLER_0_27_263
*2587 FILLER_0_27_269
*2588 FILLER_0_27_27
*2589 FILLER_0_27_277
*2590 FILLER_0_27_281
*2591 FILLER_0_27_296
*2592 FILLER_0_27_3
*2593 FILLER_0_27_315
*2594 FILLER_0_27_321
*2595 FILLER_0_27_335
*2596 FILLER_0_27_365
*2597 FILLER_0_27_378
*2598 FILLER_0_27_382
*2599 FILLER_0_27_39
*2600 FILLER_0_27_407
*2601 FILLER_0_27_411
*2602 FILLER_0_27_415
*2603 FILLER_0_27_427
*2604 FILLER_0_27_435
*2605 FILLER_0_27_441
*2606 FILLER_0_27_445
*2607 FILLER_0_27_449
*2608 FILLER_0_27_453
*2609 FILLER_0_27_457
*2610 FILLER_0_27_461
*2611 FILLER_0_27_465
*2612 FILLER_0_27_487
*2613 FILLER_0_27_499
*2614 FILLER_0_27_503
*2615 FILLER_0_27_505
*2616 FILLER_0_27_51
*2617 FILLER_0_27_517
*2618 FILLER_0_27_529
*2619 FILLER_0_27_541
*2620 FILLER_0_27_55
*2621 FILLER_0_27_553
*2622 FILLER_0_27_559
*2623 FILLER_0_27_561
*2624 FILLER_0_27_57
*2625 FILLER_0_27_573
*2626 FILLER_0_27_585
*2627 FILLER_0_27_597
*2628 FILLER_0_27_609
*2629 FILLER_0_27_615
*2630 FILLER_0_27_617
*2631 FILLER_0_27_69
*2632 FILLER_0_27_81
*2633 FILLER_0_27_93
*2634 FILLER_0_28_109
*2635 FILLER_0_28_121
*2636 FILLER_0_28_133
*2637 FILLER_0_28_139
*2638 FILLER_0_28_141
*2639 FILLER_0_28_15
*2640 FILLER_0_28_153
*2641 FILLER_0_28_165
*2642 FILLER_0_28_173
*2643 FILLER_0_28_197
*2644 FILLER_0_28_242
*2645 FILLER_0_28_27
*2646 FILLER_0_28_270
*2647 FILLER_0_28_276
*2648 FILLER_0_28_286
*2649 FILLER_0_28_29
*2650 FILLER_0_28_290
*2651 FILLER_0_28_3
*2652 FILLER_0_28_302
*2653 FILLER_0_28_309
*2654 FILLER_0_28_321
*2655 FILLER_0_28_331
*2656 FILLER_0_28_345
*2657 FILLER_0_28_357
*2658 FILLER_0_28_363
*2659 FILLER_0_28_378
*2660 FILLER_0_28_382
*2661 FILLER_0_28_386
*2662 FILLER_0_28_390
*2663 FILLER_0_28_394
*2664 FILLER_0_28_398
*2665 FILLER_0_28_406
*2666 FILLER_0_28_41
*2667 FILLER_0_28_410
*2668 FILLER_0_28_418
*2669 FILLER_0_28_421
*2670 FILLER_0_28_430
*2671 FILLER_0_28_442
*2672 FILLER_0_28_492
*2673 FILLER_0_28_496
*2674 FILLER_0_28_508
*2675 FILLER_0_28_520
*2676 FILLER_0_28_53
*2677 FILLER_0_28_533
*2678 FILLER_0_28_545
*2679 FILLER_0_28_557
*2680 FILLER_0_28_569
*2681 FILLER_0_28_581
*2682 FILLER_0_28_587
*2683 FILLER_0_28_589
*2684 FILLER_0_28_601
*2685 FILLER_0_28_616
*2686 FILLER_0_28_624
*2687 FILLER_0_28_65
*2688 FILLER_0_28_77
*2689 FILLER_0_28_83
*2690 FILLER_0_28_85
*2691 FILLER_0_28_97
*2692 FILLER_0_29_105
*2693 FILLER_0_29_111
*2694 FILLER_0_29_113
*2695 FILLER_0_29_125
*2696 FILLER_0_29_137
*2697 FILLER_0_29_149
*2698 FILLER_0_29_15
*2699 FILLER_0_29_161
*2700 FILLER_0_29_167
*2701 FILLER_0_29_169
*2702 FILLER_0_29_181
*2703 FILLER_0_29_189
*2704 FILLER_0_29_193
*2705 FILLER_0_29_198
*2706 FILLER_0_29_218
*2707 FILLER_0_29_222
*2708 FILLER_0_29_225
*2709 FILLER_0_29_234
*2710 FILLER_0_29_242
*2711 FILLER_0_29_259
*2712 FILLER_0_29_263
*2713 FILLER_0_29_27
*2714 FILLER_0_29_275
*2715 FILLER_0_29_3
*2716 FILLER_0_29_301
*2717 FILLER_0_29_305
*2718 FILLER_0_29_324
*2719 FILLER_0_29_337
*2720 FILLER_0_29_349
*2721 FILLER_0_29_382
*2722 FILLER_0_29_389
*2723 FILLER_0_29_39
*2724 FILLER_0_29_393
*2725 FILLER_0_29_403
*2726 FILLER_0_29_410
*2727 FILLER_0_29_414
*2728 FILLER_0_29_422
*2729 FILLER_0_29_434
*2730 FILLER_0_29_444
*2731 FILLER_0_29_449
*2732 FILLER_0_29_487
*2733 FILLER_0_29_491
*2734 FILLER_0_29_495
*2735 FILLER_0_29_503
*2736 FILLER_0_29_505
*2737 FILLER_0_29_51
*2738 FILLER_0_29_517
*2739 FILLER_0_29_529
*2740 FILLER_0_29_541
*2741 FILLER_0_29_55
*2742 FILLER_0_29_553
*2743 FILLER_0_29_559
*2744 FILLER_0_29_561
*2745 FILLER_0_29_57
*2746 FILLER_0_29_573
*2747 FILLER_0_29_585
*2748 FILLER_0_29_597
*2749 FILLER_0_29_609
*2750 FILLER_0_29_615
*2751 FILLER_0_29_617
*2752 FILLER_0_29_69
*2753 FILLER_0_29_81
*2754 FILLER_0_29_93
*2755 FILLER_0_2_109
*2756 FILLER_0_2_11
*2757 FILLER_0_2_121
*2758 FILLER_0_2_133
*2759 FILLER_0_2_139
*2760 FILLER_0_2_141
*2761 FILLER_0_2_15
*2762 FILLER_0_2_153
*2763 FILLER_0_2_165
*2764 FILLER_0_2_177
*2765 FILLER_0_2_189
*2766 FILLER_0_2_195
*2767 FILLER_0_2_197
*2768 FILLER_0_2_209
*2769 FILLER_0_2_221
*2770 FILLER_0_2_233
*2771 FILLER_0_2_245
*2772 FILLER_0_2_251
*2773 FILLER_0_2_253
*2774 FILLER_0_2_265
*2775 FILLER_0_2_27
*2776 FILLER_0_2_277
*2777 FILLER_0_2_289
*2778 FILLER_0_2_29
*2779 FILLER_0_2_3
*2780 FILLER_0_2_301
*2781 FILLER_0_2_307
*2782 FILLER_0_2_309
*2783 FILLER_0_2_317
*2784 FILLER_0_2_323
*2785 FILLER_0_2_335
*2786 FILLER_0_2_347
*2787 FILLER_0_2_353
*2788 FILLER_0_2_357
*2789 FILLER_0_2_363
*2790 FILLER_0_2_365
*2791 FILLER_0_2_377
*2792 FILLER_0_2_382
*2793 FILLER_0_2_394
*2794 FILLER_0_2_406
*2795 FILLER_0_2_41
*2796 FILLER_0_2_418
*2797 FILLER_0_2_421
*2798 FILLER_0_2_433
*2799 FILLER_0_2_445
*2800 FILLER_0_2_457
*2801 FILLER_0_2_469
*2802 FILLER_0_2_475
*2803 FILLER_0_2_477
*2804 FILLER_0_2_489
*2805 FILLER_0_2_501
*2806 FILLER_0_2_513
*2807 FILLER_0_2_525
*2808 FILLER_0_2_53
*2809 FILLER_0_2_531
*2810 FILLER_0_2_533
*2811 FILLER_0_2_545
*2812 FILLER_0_2_557
*2813 FILLER_0_2_569
*2814 FILLER_0_2_581
*2815 FILLER_0_2_587
*2816 FILLER_0_2_589
*2817 FILLER_0_2_601
*2818 FILLER_0_2_613
*2819 FILLER_0_2_65
*2820 FILLER_0_2_77
*2821 FILLER_0_2_83
*2822 FILLER_0_2_85
*2823 FILLER_0_2_97
*2824 FILLER_0_30_109
*2825 FILLER_0_30_121
*2826 FILLER_0_30_133
*2827 FILLER_0_30_139
*2828 FILLER_0_30_141
*2829 FILLER_0_30_153
*2830 FILLER_0_30_165
*2831 FILLER_0_30_177
*2832 FILLER_0_30_18
*2833 FILLER_0_30_194
*2834 FILLER_0_30_197
*2835 FILLER_0_30_211
*2836 FILLER_0_30_217
*2837 FILLER_0_30_233
*2838 FILLER_0_30_26
*2839 FILLER_0_30_270
*2840 FILLER_0_30_274
*2841 FILLER_0_30_278
*2842 FILLER_0_30_29
*2843 FILLER_0_30_299
*2844 FILLER_0_30_307
*2845 FILLER_0_30_309
*2846 FILLER_0_30_320
*2847 FILLER_0_30_328
*2848 FILLER_0_30_344
*2849 FILLER_0_30_356
*2850 FILLER_0_30_362
*2851 FILLER_0_30_387
*2852 FILLER_0_30_41
*2853 FILLER_0_30_418
*2854 FILLER_0_30_449
*2855 FILLER_0_30_480
*2856 FILLER_0_30_488
*2857 FILLER_0_30_492
*2858 FILLER_0_30_504
*2859 FILLER_0_30_516
*2860 FILLER_0_30_528
*2861 FILLER_0_30_53
*2862 FILLER_0_30_533
*2863 FILLER_0_30_545
*2864 FILLER_0_30_557
*2865 FILLER_0_30_569
*2866 FILLER_0_30_581
*2867 FILLER_0_30_587
*2868 FILLER_0_30_589
*2869 FILLER_0_30_6
*2870 FILLER_0_30_601
*2871 FILLER_0_30_613
*2872 FILLER_0_30_65
*2873 FILLER_0_30_77
*2874 FILLER_0_30_83
*2875 FILLER_0_30_85
*2876 FILLER_0_30_97
*2877 FILLER_0_31_105
*2878 FILLER_0_31_111
*2879 FILLER_0_31_113
*2880 FILLER_0_31_125
*2881 FILLER_0_31_137
*2882 FILLER_0_31_149
*2883 FILLER_0_31_15
*2884 FILLER_0_31_161
*2885 FILLER_0_31_167
*2886 FILLER_0_31_169
*2887 FILLER_0_31_206
*2888 FILLER_0_31_216
*2889 FILLER_0_31_233
*2890 FILLER_0_31_239
*2891 FILLER_0_31_260
*2892 FILLER_0_31_264
*2893 FILLER_0_31_27
*2894 FILLER_0_31_276
*2895 FILLER_0_31_281
*2896 FILLER_0_31_289
*2897 FILLER_0_31_293
*2898 FILLER_0_31_3
*2899 FILLER_0_31_316
*2900 FILLER_0_31_322
*2901 FILLER_0_31_344
*2902 FILLER_0_31_374
*2903 FILLER_0_31_378
*2904 FILLER_0_31_39
*2905 FILLER_0_31_420
*2906 FILLER_0_31_444
*2907 FILLER_0_31_463
*2908 FILLER_0_31_471
*2909 FILLER_0_31_480
*2910 FILLER_0_31_484
*2911 FILLER_0_31_496
*2912 FILLER_0_31_505
*2913 FILLER_0_31_51
*2914 FILLER_0_31_517
*2915 FILLER_0_31_529
*2916 FILLER_0_31_541
*2917 FILLER_0_31_55
*2918 FILLER_0_31_553
*2919 FILLER_0_31_559
*2920 FILLER_0_31_561
*2921 FILLER_0_31_57
*2922 FILLER_0_31_573
*2923 FILLER_0_31_585
*2924 FILLER_0_31_597
*2925 FILLER_0_31_609
*2926 FILLER_0_31_615
*2927 FILLER_0_31_617
*2928 FILLER_0_31_69
*2929 FILLER_0_31_81
*2930 FILLER_0_31_93
*2931 FILLER_0_32_109
*2932 FILLER_0_32_121
*2933 FILLER_0_32_133
*2934 FILLER_0_32_139
*2935 FILLER_0_32_141
*2936 FILLER_0_32_15
*2937 FILLER_0_32_153
*2938 FILLER_0_32_165
*2939 FILLER_0_32_177
*2940 FILLER_0_32_185
*2941 FILLER_0_32_191
*2942 FILLER_0_32_195
*2943 FILLER_0_32_197
*2944 FILLER_0_32_201
*2945 FILLER_0_32_218
*2946 FILLER_0_32_231
*2947 FILLER_0_32_243
*2948 FILLER_0_32_247
*2949 FILLER_0_32_251
*2950 FILLER_0_32_261
*2951 FILLER_0_32_27
*2952 FILLER_0_32_273
*2953 FILLER_0_32_277
*2954 FILLER_0_32_29
*2955 FILLER_0_32_291
*2956 FILLER_0_32_3
*2957 FILLER_0_32_309
*2958 FILLER_0_32_313
*2959 FILLER_0_32_324
*2960 FILLER_0_32_343
*2961 FILLER_0_32_355
*2962 FILLER_0_32_363
*2963 FILLER_0_32_365
*2964 FILLER_0_32_369
*2965 FILLER_0_32_381
*2966 FILLER_0_32_393
*2967 FILLER_0_32_41
*2968 FILLER_0_32_417
*2969 FILLER_0_32_421
*2970 FILLER_0_32_472
*2971 FILLER_0_32_477
*2972 FILLER_0_32_489
*2973 FILLER_0_32_517
*2974 FILLER_0_32_529
*2975 FILLER_0_32_53
*2976 FILLER_0_32_533
*2977 FILLER_0_32_545
*2978 FILLER_0_32_557
*2979 FILLER_0_32_569
*2980 FILLER_0_32_581
*2981 FILLER_0_32_587
*2982 FILLER_0_32_589
*2983 FILLER_0_32_601
*2984 FILLER_0_32_616
*2985 FILLER_0_32_624
*2986 FILLER_0_32_65
*2987 FILLER_0_32_77
*2988 FILLER_0_32_83
*2989 FILLER_0_32_85
*2990 FILLER_0_32_97
*2991 FILLER_0_33_105
*2992 FILLER_0_33_111
*2993 FILLER_0_33_113
*2994 FILLER_0_33_125
*2995 FILLER_0_33_137
*2996 FILLER_0_33_149
*2997 FILLER_0_33_15
*2998 FILLER_0_33_161
*2999 FILLER_0_33_167
*3000 FILLER_0_33_169
*3001 FILLER_0_33_177
*3002 FILLER_0_33_219
*3003 FILLER_0_33_223
*3004 FILLER_0_33_234
*3005 FILLER_0_33_238
*3006 FILLER_0_33_261
*3007 FILLER_0_33_265
*3008 FILLER_0_33_27
*3009 FILLER_0_33_292
*3010 FILLER_0_33_296
*3011 FILLER_0_33_3
*3012 FILLER_0_33_305
*3013 FILLER_0_33_309
*3014 FILLER_0_33_335
*3015 FILLER_0_33_350
*3016 FILLER_0_33_381
*3017 FILLER_0_33_385
*3018 FILLER_0_33_39
*3019 FILLER_0_33_391
*3020 FILLER_0_33_393
*3021 FILLER_0_33_397
*3022 FILLER_0_33_404
*3023 FILLER_0_33_412
*3024 FILLER_0_33_424
*3025 FILLER_0_33_445
*3026 FILLER_0_33_457
*3027 FILLER_0_33_485
*3028 FILLER_0_33_491
*3029 FILLER_0_33_51
*3030 FILLER_0_33_525
*3031 FILLER_0_33_537
*3032 FILLER_0_33_549
*3033 FILLER_0_33_55
*3034 FILLER_0_33_557
*3035 FILLER_0_33_561
*3036 FILLER_0_33_57
*3037 FILLER_0_33_573
*3038 FILLER_0_33_585
*3039 FILLER_0_33_597
*3040 FILLER_0_33_609
*3041 FILLER_0_33_615
*3042 FILLER_0_33_617
*3043 FILLER_0_33_69
*3044 FILLER_0_33_81
*3045 FILLER_0_33_93
*3046 FILLER_0_34_109
*3047 FILLER_0_34_121
*3048 FILLER_0_34_133
*3049 FILLER_0_34_139
*3050 FILLER_0_34_141
*3051 FILLER_0_34_15
*3052 FILLER_0_34_153
*3053 FILLER_0_34_165
*3054 FILLER_0_34_173
*3055 FILLER_0_34_197
*3056 FILLER_0_34_221
*3057 FILLER_0_34_260
*3058 FILLER_0_34_27
*3059 FILLER_0_34_29
*3060 FILLER_0_34_3
*3061 FILLER_0_34_304
*3062 FILLER_0_34_309
*3063 FILLER_0_34_321
*3064 FILLER_0_34_325
*3065 FILLER_0_34_359
*3066 FILLER_0_34_363
*3067 FILLER_0_34_378
*3068 FILLER_0_34_382
*3069 FILLER_0_34_386
*3070 FILLER_0_34_398
*3071 FILLER_0_34_41
*3072 FILLER_0_34_410
*3073 FILLER_0_34_418
*3074 FILLER_0_34_421
*3075 FILLER_0_34_433
*3076 FILLER_0_34_445
*3077 FILLER_0_34_457
*3078 FILLER_0_34_465
*3079 FILLER_0_34_473
*3080 FILLER_0_34_521
*3081 FILLER_0_34_529
*3082 FILLER_0_34_53
*3083 FILLER_0_34_533
*3084 FILLER_0_34_545
*3085 FILLER_0_34_557
*3086 FILLER_0_34_569
*3087 FILLER_0_34_581
*3088 FILLER_0_34_587
*3089 FILLER_0_34_589
*3090 FILLER_0_34_601
*3091 FILLER_0_34_613
*3092 FILLER_0_34_65
*3093 FILLER_0_34_77
*3094 FILLER_0_34_83
*3095 FILLER_0_34_85
*3096 FILLER_0_34_97
*3097 FILLER_0_35_105
*3098 FILLER_0_35_111
*3099 FILLER_0_35_113
*3100 FILLER_0_35_125
*3101 FILLER_0_35_133
*3102 FILLER_0_35_146
*3103 FILLER_0_35_158
*3104 FILLER_0_35_166
*3105 FILLER_0_35_169
*3106 FILLER_0_35_181
*3107 FILLER_0_35_193
*3108 FILLER_0_35_21
*3109 FILLER_0_35_210
*3110 FILLER_0_35_214
*3111 FILLER_0_35_220
*3112 FILLER_0_35_223
*3113 FILLER_0_35_254
*3114 FILLER_0_35_266
*3115 FILLER_0_35_270
*3116 FILLER_0_35_301
*3117 FILLER_0_35_305
*3118 FILLER_0_35_309
*3119 FILLER_0_35_321
*3120 FILLER_0_35_33
*3121 FILLER_0_35_333
*3122 FILLER_0_35_337
*3123 FILLER_0_35_341
*3124 FILLER_0_35_357
*3125 FILLER_0_35_361
*3126 FILLER_0_35_393
*3127 FILLER_0_35_397
*3128 FILLER_0_35_409
*3129 FILLER_0_35_421
*3130 FILLER_0_35_432
*3131 FILLER_0_35_445
*3132 FILLER_0_35_449
*3133 FILLER_0_35_45
*3134 FILLER_0_35_461
*3135 FILLER_0_35_469
*3136 FILLER_0_35_475
*3137 FILLER_0_35_488
*3138 FILLER_0_35_502
*3139 FILLER_0_35_510
*3140 FILLER_0_35_522
*3141 FILLER_0_35_53
*3142 FILLER_0_35_534
*3143 FILLER_0_35_546
*3144 FILLER_0_35_558
*3145 FILLER_0_35_561
*3146 FILLER_0_35_57
*3147 FILLER_0_35_573
*3148 FILLER_0_35_585
*3149 FILLER_0_35_597
*3150 FILLER_0_35_609
*3151 FILLER_0_35_615
*3152 FILLER_0_35_617
*3153 FILLER_0_35_69
*3154 FILLER_0_35_81
*3155 FILLER_0_35_9
*3156 FILLER_0_35_93
*3157 FILLER_0_36_109
*3158 FILLER_0_36_121
*3159 FILLER_0_36_133
*3160 FILLER_0_36_139
*3161 FILLER_0_36_141
*3162 FILLER_0_36_15
*3163 FILLER_0_36_153
*3164 FILLER_0_36_165
*3165 FILLER_0_36_177
*3166 FILLER_0_36_181
*3167 FILLER_0_36_185
*3168 FILLER_0_36_189
*3169 FILLER_0_36_195
*3170 FILLER_0_36_197
*3171 FILLER_0_36_206
*3172 FILLER_0_36_210
*3173 FILLER_0_36_233
*3174 FILLER_0_36_237
*3175 FILLER_0_36_241
*3176 FILLER_0_36_244
*3177 FILLER_0_36_248
*3178 FILLER_0_36_253
*3179 FILLER_0_36_257
*3180 FILLER_0_36_27
*3181 FILLER_0_36_29
*3182 FILLER_0_36_3
*3183 FILLER_0_36_305
*3184 FILLER_0_36_345
*3185 FILLER_0_36_349
*3186 FILLER_0_36_353
*3187 FILLER_0_36_361
*3188 FILLER_0_36_365
*3189 FILLER_0_36_382
*3190 FILLER_0_36_404
*3191 FILLER_0_36_41
*3192 FILLER_0_36_416
*3193 FILLER_0_36_453
*3194 FILLER_0_36_465
*3195 FILLER_0_36_473
*3196 FILLER_0_36_477
*3197 FILLER_0_36_489
*3198 FILLER_0_36_504
*3199 FILLER_0_36_516
*3200 FILLER_0_36_528
*3201 FILLER_0_36_53
*3202 FILLER_0_36_533
*3203 FILLER_0_36_545
*3204 FILLER_0_36_557
*3205 FILLER_0_36_569
*3206 FILLER_0_36_581
*3207 FILLER_0_36_587
*3208 FILLER_0_36_589
*3209 FILLER_0_36_601
*3210 FILLER_0_36_613
*3211 FILLER_0_36_65
*3212 FILLER_0_36_77
*3213 FILLER_0_36_83
*3214 FILLER_0_36_85
*3215 FILLER_0_36_97
*3216 FILLER_0_37_105
*3217 FILLER_0_37_111
*3218 FILLER_0_37_113
*3219 FILLER_0_37_125
*3220 FILLER_0_37_137
*3221 FILLER_0_37_149
*3222 FILLER_0_37_15
*3223 FILLER_0_37_161
*3224 FILLER_0_37_167
*3225 FILLER_0_37_169
*3226 FILLER_0_37_181
*3227 FILLER_0_37_189
*3228 FILLER_0_37_197
*3229 FILLER_0_37_201
*3230 FILLER_0_37_205
*3231 FILLER_0_37_208
*3232 FILLER_0_37_219
*3233 FILLER_0_37_225
*3234 FILLER_0_37_234
*3235 FILLER_0_37_238
*3236 FILLER_0_37_243
*3237 FILLER_0_37_247
*3238 FILLER_0_37_250
*3239 FILLER_0_37_27
*3240 FILLER_0_37_3
*3241 FILLER_0_37_301
*3242 FILLER_0_37_305
*3243 FILLER_0_37_313
*3244 FILLER_0_37_331
*3245 FILLER_0_37_345
*3246 FILLER_0_37_389
*3247 FILLER_0_37_39
*3248 FILLER_0_37_413
*3249 FILLER_0_37_419
*3250 FILLER_0_37_482
*3251 FILLER_0_37_493
*3252 FILLER_0_37_501
*3253 FILLER_0_37_505
*3254 FILLER_0_37_51
*3255 FILLER_0_37_517
*3256 FILLER_0_37_529
*3257 FILLER_0_37_541
*3258 FILLER_0_37_55
*3259 FILLER_0_37_553
*3260 FILLER_0_37_559
*3261 FILLER_0_37_561
*3262 FILLER_0_37_57
*3263 FILLER_0_37_573
*3264 FILLER_0_37_585
*3265 FILLER_0_37_597
*3266 FILLER_0_37_609
*3267 FILLER_0_37_615
*3268 FILLER_0_37_617
*3269 FILLER_0_37_69
*3270 FILLER_0_37_81
*3271 FILLER_0_37_93
*3272 FILLER_0_38_109
*3273 FILLER_0_38_121
*3274 FILLER_0_38_133
*3275 FILLER_0_38_139
*3276 FILLER_0_38_141
*3277 FILLER_0_38_15
*3278 FILLER_0_38_153
*3279 FILLER_0_38_165
*3280 FILLER_0_38_177
*3281 FILLER_0_38_189
*3282 FILLER_0_38_193
*3283 FILLER_0_38_203
*3284 FILLER_0_38_207
*3285 FILLER_0_38_227
*3286 FILLER_0_38_243
*3287 FILLER_0_38_251
*3288 FILLER_0_38_259
*3289 FILLER_0_38_27
*3290 FILLER_0_38_29
*3291 FILLER_0_38_3
*3292 FILLER_0_38_302
*3293 FILLER_0_38_306
*3294 FILLER_0_38_309
*3295 FILLER_0_38_313
*3296 FILLER_0_38_343
*3297 FILLER_0_38_41
*3298 FILLER_0_38_415
*3299 FILLER_0_38_419
*3300 FILLER_0_38_421
*3301 FILLER_0_38_444
*3302 FILLER_0_38_461
*3303 FILLER_0_38_472
*3304 FILLER_0_38_477
*3305 FILLER_0_38_489
*3306 FILLER_0_38_497
*3307 FILLER_0_38_515
*3308 FILLER_0_38_527
*3309 FILLER_0_38_53
*3310 FILLER_0_38_531
*3311 FILLER_0_38_533
*3312 FILLER_0_38_545
*3313 FILLER_0_38_557
*3314 FILLER_0_38_569
*3315 FILLER_0_38_581
*3316 FILLER_0_38_587
*3317 FILLER_0_38_589
*3318 FILLER_0_38_601
*3319 FILLER_0_38_613
*3320 FILLER_0_38_65
*3321 FILLER_0_38_77
*3322 FILLER_0_38_83
*3323 FILLER_0_38_85
*3324 FILLER_0_38_97
*3325 FILLER_0_39_105
*3326 FILLER_0_39_111
*3327 FILLER_0_39_113
*3328 FILLER_0_39_125
*3329 FILLER_0_39_137
*3330 FILLER_0_39_149
*3331 FILLER_0_39_15
*3332 FILLER_0_39_161
*3333 FILLER_0_39_167
*3334 FILLER_0_39_189
*3335 FILLER_0_39_214
*3336 FILLER_0_39_225
*3337 FILLER_0_39_238
*3338 FILLER_0_39_27
*3339 FILLER_0_39_276
*3340 FILLER_0_39_3
*3341 FILLER_0_39_307
*3342 FILLER_0_39_333
*3343 FILLER_0_39_337
*3344 FILLER_0_39_345
*3345 FILLER_0_39_355
*3346 FILLER_0_39_39
*3347 FILLER_0_39_414
*3348 FILLER_0_39_426
*3349 FILLER_0_39_435
*3350 FILLER_0_39_447
*3351 FILLER_0_39_456
*3352 FILLER_0_39_468
*3353 FILLER_0_39_477
*3354 FILLER_0_39_502
*3355 FILLER_0_39_51
*3356 FILLER_0_39_525
*3357 FILLER_0_39_537
*3358 FILLER_0_39_549
*3359 FILLER_0_39_55
*3360 FILLER_0_39_557
*3361 FILLER_0_39_561
*3362 FILLER_0_39_57
*3363 FILLER_0_39_573
*3364 FILLER_0_39_585
*3365 FILLER_0_39_597
*3366 FILLER_0_39_609
*3367 FILLER_0_39_615
*3368 FILLER_0_39_617
*3369 FILLER_0_39_69
*3370 FILLER_0_39_81
*3371 FILLER_0_39_93
*3372 FILLER_0_3_105
*3373 FILLER_0_3_111
*3374 FILLER_0_3_113
*3375 FILLER_0_3_125
*3376 FILLER_0_3_137
*3377 FILLER_0_3_149
*3378 FILLER_0_3_15
*3379 FILLER_0_3_161
*3380 FILLER_0_3_167
*3381 FILLER_0_3_169
*3382 FILLER_0_3_181
*3383 FILLER_0_3_193
*3384 FILLER_0_3_205
*3385 FILLER_0_3_217
*3386 FILLER_0_3_223
*3387 FILLER_0_3_225
*3388 FILLER_0_3_237
*3389 FILLER_0_3_249
*3390 FILLER_0_3_261
*3391 FILLER_0_3_27
*3392 FILLER_0_3_273
*3393 FILLER_0_3_279
*3394 FILLER_0_3_281
*3395 FILLER_0_3_293
*3396 FILLER_0_3_3
*3397 FILLER_0_3_305
*3398 FILLER_0_3_317
*3399 FILLER_0_3_329
*3400 FILLER_0_3_335
*3401 FILLER_0_3_337
*3402 FILLER_0_3_349
*3403 FILLER_0_3_361
*3404 FILLER_0_3_373
*3405 FILLER_0_3_385
*3406 FILLER_0_3_39
*3407 FILLER_0_3_391
*3408 FILLER_0_3_393
*3409 FILLER_0_3_405
*3410 FILLER_0_3_417
*3411 FILLER_0_3_429
*3412 FILLER_0_3_441
*3413 FILLER_0_3_447
*3414 FILLER_0_3_449
*3415 FILLER_0_3_461
*3416 FILLER_0_3_473
*3417 FILLER_0_3_485
*3418 FILLER_0_3_497
*3419 FILLER_0_3_503
*3420 FILLER_0_3_505
*3421 FILLER_0_3_51
*3422 FILLER_0_3_517
*3423 FILLER_0_3_529
*3424 FILLER_0_3_541
*3425 FILLER_0_3_55
*3426 FILLER_0_3_553
*3427 FILLER_0_3_559
*3428 FILLER_0_3_561
*3429 FILLER_0_3_57
*3430 FILLER_0_3_573
*3431 FILLER_0_3_585
*3432 FILLER_0_3_597
*3433 FILLER_0_3_609
*3434 FILLER_0_3_615
*3435 FILLER_0_3_617
*3436 FILLER_0_3_69
*3437 FILLER_0_3_81
*3438 FILLER_0_3_93
*3439 FILLER_0_40_109
*3440 FILLER_0_40_121
*3441 FILLER_0_40_133
*3442 FILLER_0_40_139
*3443 FILLER_0_40_141
*3444 FILLER_0_40_15
*3445 FILLER_0_40_153
*3446 FILLER_0_40_165
*3447 FILLER_0_40_173
*3448 FILLER_0_40_177
*3449 FILLER_0_40_186
*3450 FILLER_0_40_197
*3451 FILLER_0_40_213
*3452 FILLER_0_40_27
*3453 FILLER_0_40_29
*3454 FILLER_0_40_3
*3455 FILLER_0_40_301
*3456 FILLER_0_40_305
*3457 FILLER_0_40_309
*3458 FILLER_0_40_350
*3459 FILLER_0_40_362
*3460 FILLER_0_40_365
*3461 FILLER_0_40_369
*3462 FILLER_0_40_378
*3463 FILLER_0_40_402
*3464 FILLER_0_40_41
*3465 FILLER_0_40_414
*3466 FILLER_0_40_421
*3467 FILLER_0_40_429
*3468 FILLER_0_40_452
*3469 FILLER_0_40_456
*3470 FILLER_0_40_467
*3471 FILLER_0_40_477
*3472 FILLER_0_40_481
*3473 FILLER_0_40_490
*3474 FILLER_0_40_519
*3475 FILLER_0_40_53
*3476 FILLER_0_40_531
*3477 FILLER_0_40_533
*3478 FILLER_0_40_545
*3479 FILLER_0_40_557
*3480 FILLER_0_40_569
*3481 FILLER_0_40_581
*3482 FILLER_0_40_587
*3483 FILLER_0_40_589
*3484 FILLER_0_40_601
*3485 FILLER_0_40_613
*3486 FILLER_0_40_65
*3487 FILLER_0_40_77
*3488 FILLER_0_40_83
*3489 FILLER_0_40_85
*3490 FILLER_0_40_97
*3491 FILLER_0_41_105
*3492 FILLER_0_41_111
*3493 FILLER_0_41_113
*3494 FILLER_0_41_125
*3495 FILLER_0_41_137
*3496 FILLER_0_41_149
*3497 FILLER_0_41_15
*3498 FILLER_0_41_161
*3499 FILLER_0_41_167
*3500 FILLER_0_41_200
*3501 FILLER_0_41_237
*3502 FILLER_0_41_27
*3503 FILLER_0_41_3
*3504 FILLER_0_41_309
*3505 FILLER_0_41_321
*3506 FILLER_0_41_325
*3507 FILLER_0_41_329
*3508 FILLER_0_41_335
*3509 FILLER_0_41_337
*3510 FILLER_0_41_349
*3511 FILLER_0_41_373
*3512 FILLER_0_41_377
*3513 FILLER_0_41_387
*3514 FILLER_0_41_39
*3515 FILLER_0_41_391
*3516 FILLER_0_41_401
*3517 FILLER_0_41_413
*3518 FILLER_0_41_421
*3519 FILLER_0_41_447
*3520 FILLER_0_41_454
*3521 FILLER_0_41_458
*3522 FILLER_0_41_502
*3523 FILLER_0_41_51
*3524 FILLER_0_41_514
*3525 FILLER_0_41_526
*3526 FILLER_0_41_538
*3527 FILLER_0_41_55
*3528 FILLER_0_41_550
*3529 FILLER_0_41_558
*3530 FILLER_0_41_561
*3531 FILLER_0_41_57
*3532 FILLER_0_41_573
*3533 FILLER_0_41_585
*3534 FILLER_0_41_597
*3535 FILLER_0_41_609
*3536 FILLER_0_41_615
*3537 FILLER_0_41_617
*3538 FILLER_0_41_69
*3539 FILLER_0_41_81
*3540 FILLER_0_41_93
*3541 FILLER_0_42_109
*3542 FILLER_0_42_11
*3543 FILLER_0_42_121
*3544 FILLER_0_42_133
*3545 FILLER_0_42_139
*3546 FILLER_0_42_141
*3547 FILLER_0_42_15
*3548 FILLER_0_42_153
*3549 FILLER_0_42_165
*3550 FILLER_0_42_177
*3551 FILLER_0_42_185
*3552 FILLER_0_42_188
*3553 FILLER_0_42_19
*3554 FILLER_0_42_192
*3555 FILLER_0_42_207
*3556 FILLER_0_42_211
*3557 FILLER_0_42_225
*3558 FILLER_0_42_23
*3559 FILLER_0_42_233
*3560 FILLER_0_42_244
*3561 FILLER_0_42_253
*3562 FILLER_0_42_27
*3563 FILLER_0_42_29
*3564 FILLER_0_42_3
*3565 FILLER_0_42_301
*3566 FILLER_0_42_305
*3567 FILLER_0_42_330
*3568 FILLER_0_42_334
*3569 FILLER_0_42_359
*3570 FILLER_0_42_363
*3571 FILLER_0_42_365
*3572 FILLER_0_42_369
*3573 FILLER_0_42_374
*3574 FILLER_0_42_405
*3575 FILLER_0_42_41
*3576 FILLER_0_42_417
*3577 FILLER_0_42_421
*3578 FILLER_0_42_448
*3579 FILLER_0_42_474
*3580 FILLER_0_42_503
*3581 FILLER_0_42_507
*3582 FILLER_0_42_519
*3583 FILLER_0_42_53
*3584 FILLER_0_42_531
*3585 FILLER_0_42_533
*3586 FILLER_0_42_545
*3587 FILLER_0_42_557
*3588 FILLER_0_42_569
*3589 FILLER_0_42_581
*3590 FILLER_0_42_587
*3591 FILLER_0_42_589
*3592 FILLER_0_42_601
*3593 FILLER_0_42_609
*3594 FILLER_0_42_616
*3595 FILLER_0_42_624
*3596 FILLER_0_42_65
*3597 FILLER_0_42_77
*3598 FILLER_0_42_83
*3599 FILLER_0_42_85
*3600 FILLER_0_42_97
*3601 FILLER_0_43_105
*3602 FILLER_0_43_111
*3603 FILLER_0_43_113
*3604 FILLER_0_43_125
*3605 FILLER_0_43_137
*3606 FILLER_0_43_149
*3607 FILLER_0_43_15
*3608 FILLER_0_43_161
*3609 FILLER_0_43_167
*3610 FILLER_0_43_169
*3611 FILLER_0_43_181
*3612 FILLER_0_43_189
*3613 FILLER_0_43_194
*3614 FILLER_0_43_202
*3615 FILLER_0_43_225
*3616 FILLER_0_43_237
*3617 FILLER_0_43_249
*3618 FILLER_0_43_261
*3619 FILLER_0_43_267
*3620 FILLER_0_43_27
*3621 FILLER_0_43_271
*3622 FILLER_0_43_281
*3623 FILLER_0_43_292
*3624 FILLER_0_43_296
*3625 FILLER_0_43_3
*3626 FILLER_0_43_317
*3627 FILLER_0_43_327
*3628 FILLER_0_43_331
*3629 FILLER_0_43_350
*3630 FILLER_0_43_374
*3631 FILLER_0_43_39
*3632 FILLER_0_43_413
*3633 FILLER_0_43_425
*3634 FILLER_0_43_437
*3635 FILLER_0_43_445
*3636 FILLER_0_43_449
*3637 FILLER_0_43_500
*3638 FILLER_0_43_505
*3639 FILLER_0_43_51
*3640 FILLER_0_43_517
*3641 FILLER_0_43_529
*3642 FILLER_0_43_541
*3643 FILLER_0_43_55
*3644 FILLER_0_43_553
*3645 FILLER_0_43_559
*3646 FILLER_0_43_561
*3647 FILLER_0_43_57
*3648 FILLER_0_43_573
*3649 FILLER_0_43_585
*3650 FILLER_0_43_597
*3651 FILLER_0_43_609
*3652 FILLER_0_43_615
*3653 FILLER_0_43_617
*3654 FILLER_0_43_69
*3655 FILLER_0_43_81
*3656 FILLER_0_43_93
*3657 FILLER_0_44_109
*3658 FILLER_0_44_121
*3659 FILLER_0_44_133
*3660 FILLER_0_44_139
*3661 FILLER_0_44_141
*3662 FILLER_0_44_153
*3663 FILLER_0_44_165
*3664 FILLER_0_44_177
*3665 FILLER_0_44_18
*3666 FILLER_0_44_185
*3667 FILLER_0_44_189
*3668 FILLER_0_44_195
*3669 FILLER_0_44_197
*3670 FILLER_0_44_209
*3671 FILLER_0_44_221
*3672 FILLER_0_44_233
*3673 FILLER_0_44_245
*3674 FILLER_0_44_251
*3675 FILLER_0_44_253
*3676 FILLER_0_44_26
*3677 FILLER_0_44_265
*3678 FILLER_0_44_29
*3679 FILLER_0_44_309
*3680 FILLER_0_44_336
*3681 FILLER_0_44_361
*3682 FILLER_0_44_365
*3683 FILLER_0_44_369
*3684 FILLER_0_44_379
*3685 FILLER_0_44_383
*3686 FILLER_0_44_387
*3687 FILLER_0_44_41
*3688 FILLER_0_44_413
*3689 FILLER_0_44_419
*3690 FILLER_0_44_421
*3691 FILLER_0_44_433
*3692 FILLER_0_44_445
*3693 FILLER_0_44_457
*3694 FILLER_0_44_469
*3695 FILLER_0_44_475
*3696 FILLER_0_44_477
*3697 FILLER_0_44_489
*3698 FILLER_0_44_501
*3699 FILLER_0_44_513
*3700 FILLER_0_44_525
*3701 FILLER_0_44_53
*3702 FILLER_0_44_531
*3703 FILLER_0_44_533
*3704 FILLER_0_44_545
*3705 FILLER_0_44_557
*3706 FILLER_0_44_569
*3707 FILLER_0_44_581
*3708 FILLER_0_44_587
*3709 FILLER_0_44_589
*3710 FILLER_0_44_6
*3711 FILLER_0_44_601
*3712 FILLER_0_44_613
*3713 FILLER_0_44_65
*3714 FILLER_0_44_77
*3715 FILLER_0_44_83
*3716 FILLER_0_44_85
*3717 FILLER_0_44_97
*3718 FILLER_0_45_105
*3719 FILLER_0_45_111
*3720 FILLER_0_45_113
*3721 FILLER_0_45_125
*3722 FILLER_0_45_137
*3723 FILLER_0_45_149
*3724 FILLER_0_45_15
*3725 FILLER_0_45_161
*3726 FILLER_0_45_167
*3727 FILLER_0_45_169
*3728 FILLER_0_45_181
*3729 FILLER_0_45_193
*3730 FILLER_0_45_205
*3731 FILLER_0_45_217
*3732 FILLER_0_45_223
*3733 FILLER_0_45_225
*3734 FILLER_0_45_237
*3735 FILLER_0_45_249
*3736 FILLER_0_45_261
*3737 FILLER_0_45_269
*3738 FILLER_0_45_27
*3739 FILLER_0_45_281
*3740 FILLER_0_45_3
*3741 FILLER_0_45_316
*3742 FILLER_0_45_335
*3743 FILLER_0_45_357
*3744 FILLER_0_45_388
*3745 FILLER_0_45_39
*3746 FILLER_0_45_393
*3747 FILLER_0_45_397
*3748 FILLER_0_45_420
*3749 FILLER_0_45_432
*3750 FILLER_0_45_444
*3751 FILLER_0_45_449
*3752 FILLER_0_45_461
*3753 FILLER_0_45_473
*3754 FILLER_0_45_485
*3755 FILLER_0_45_497
*3756 FILLER_0_45_503
*3757 FILLER_0_45_505
*3758 FILLER_0_45_51
*3759 FILLER_0_45_517
*3760 FILLER_0_45_529
*3761 FILLER_0_45_541
*3762 FILLER_0_45_55
*3763 FILLER_0_45_553
*3764 FILLER_0_45_559
*3765 FILLER_0_45_561
*3766 FILLER_0_45_57
*3767 FILLER_0_45_573
*3768 FILLER_0_45_585
*3769 FILLER_0_45_597
*3770 FILLER_0_45_609
*3771 FILLER_0_45_615
*3772 FILLER_0_45_617
*3773 FILLER_0_45_69
*3774 FILLER_0_45_81
*3775 FILLER_0_45_93
*3776 FILLER_0_46_109
*3777 FILLER_0_46_121
*3778 FILLER_0_46_133
*3779 FILLER_0_46_139
*3780 FILLER_0_46_141
*3781 FILLER_0_46_15
*3782 FILLER_0_46_153
*3783 FILLER_0_46_165
*3784 FILLER_0_46_177
*3785 FILLER_0_46_189
*3786 FILLER_0_46_195
*3787 FILLER_0_46_197
*3788 FILLER_0_46_209
*3789 FILLER_0_46_221
*3790 FILLER_0_46_233
*3791 FILLER_0_46_245
*3792 FILLER_0_46_251
*3793 FILLER_0_46_253
*3794 FILLER_0_46_265
*3795 FILLER_0_46_27
*3796 FILLER_0_46_287
*3797 FILLER_0_46_29
*3798 FILLER_0_46_3
*3799 FILLER_0_46_309
*3800 FILLER_0_46_313
*3801 FILLER_0_46_360
*3802 FILLER_0_46_408
*3803 FILLER_0_46_41
*3804 FILLER_0_46_414
*3805 FILLER_0_46_426
*3806 FILLER_0_46_438
*3807 FILLER_0_46_450
*3808 FILLER_0_46_462
*3809 FILLER_0_46_474
*3810 FILLER_0_46_477
*3811 FILLER_0_46_489
*3812 FILLER_0_46_501
*3813 FILLER_0_46_513
*3814 FILLER_0_46_525
*3815 FILLER_0_46_53
*3816 FILLER_0_46_531
*3817 FILLER_0_46_533
*3818 FILLER_0_46_545
*3819 FILLER_0_46_557
*3820 FILLER_0_46_569
*3821 FILLER_0_46_581
*3822 FILLER_0_46_587
*3823 FILLER_0_46_589
*3824 FILLER_0_46_601
*3825 FILLER_0_46_613
*3826 FILLER_0_46_65
*3827 FILLER_0_46_77
*3828 FILLER_0_46_83
*3829 FILLER_0_46_85
*3830 FILLER_0_46_97
*3831 FILLER_0_47_105
*3832 FILLER_0_47_111
*3833 FILLER_0_47_113
*3834 FILLER_0_47_125
*3835 FILLER_0_47_137
*3836 FILLER_0_47_149
*3837 FILLER_0_47_15
*3838 FILLER_0_47_161
*3839 FILLER_0_47_167
*3840 FILLER_0_47_169
*3841 FILLER_0_47_181
*3842 FILLER_0_47_193
*3843 FILLER_0_47_205
*3844 FILLER_0_47_217
*3845 FILLER_0_47_223
*3846 FILLER_0_47_225
*3847 FILLER_0_47_237
*3848 FILLER_0_47_249
*3849 FILLER_0_47_261
*3850 FILLER_0_47_27
*3851 FILLER_0_47_273
*3852 FILLER_0_47_276
*3853 FILLER_0_47_290
*3854 FILLER_0_47_295
*3855 FILLER_0_47_299
*3856 FILLER_0_47_3
*3857 FILLER_0_47_304
*3858 FILLER_0_47_308
*3859 FILLER_0_47_312
*3860 FILLER_0_47_315
*3861 FILLER_0_47_319
*3862 FILLER_0_47_331
*3863 FILLER_0_47_335
*3864 FILLER_0_47_337
*3865 FILLER_0_47_343
*3866 FILLER_0_47_347
*3867 FILLER_0_47_384
*3868 FILLER_0_47_388
*3869 FILLER_0_47_39
*3870 FILLER_0_47_393
*3871 FILLER_0_47_407
*3872 FILLER_0_47_418
*3873 FILLER_0_47_428
*3874 FILLER_0_47_440
*3875 FILLER_0_47_449
*3876 FILLER_0_47_461
*3877 FILLER_0_47_473
*3878 FILLER_0_47_485
*3879 FILLER_0_47_497
*3880 FILLER_0_47_503
*3881 FILLER_0_47_505
*3882 FILLER_0_47_51
*3883 FILLER_0_47_517
*3884 FILLER_0_47_529
*3885 FILLER_0_47_541
*3886 FILLER_0_47_55
*3887 FILLER_0_47_553
*3888 FILLER_0_47_559
*3889 FILLER_0_47_561
*3890 FILLER_0_47_57
*3891 FILLER_0_47_573
*3892 FILLER_0_47_585
*3893 FILLER_0_47_597
*3894 FILLER_0_47_609
*3895 FILLER_0_47_615
*3896 FILLER_0_47_617
*3897 FILLER_0_47_69
*3898 FILLER_0_47_81
*3899 FILLER_0_47_93
*3900 FILLER_0_48_109
*3901 FILLER_0_48_121
*3902 FILLER_0_48_133
*3903 FILLER_0_48_139
*3904 FILLER_0_48_141
*3905 FILLER_0_48_15
*3906 FILLER_0_48_153
*3907 FILLER_0_48_165
*3908 FILLER_0_48_177
*3909 FILLER_0_48_189
*3910 FILLER_0_48_195
*3911 FILLER_0_48_197
*3912 FILLER_0_48_209
*3913 FILLER_0_48_221
*3914 FILLER_0_48_233
*3915 FILLER_0_48_245
*3916 FILLER_0_48_251
*3917 FILLER_0_48_253
*3918 FILLER_0_48_265
*3919 FILLER_0_48_269
*3920 FILLER_0_48_27
*3921 FILLER_0_48_29
*3922 FILLER_0_48_3
*3923 FILLER_0_48_324
*3924 FILLER_0_48_332
*3925 FILLER_0_48_335
*3926 FILLER_0_48_339
*3927 FILLER_0_48_344
*3928 FILLER_0_48_348
*3929 FILLER_0_48_358
*3930 FILLER_0_48_362
*3931 FILLER_0_48_365
*3932 FILLER_0_48_369
*3933 FILLER_0_48_385
*3934 FILLER_0_48_389
*3935 FILLER_0_48_393
*3936 FILLER_0_48_399
*3937 FILLER_0_48_41
*3938 FILLER_0_48_441
*3939 FILLER_0_48_453
*3940 FILLER_0_48_465
*3941 FILLER_0_48_473
*3942 FILLER_0_48_477
*3943 FILLER_0_48_489
*3944 FILLER_0_48_501
*3945 FILLER_0_48_513
*3946 FILLER_0_48_525
*3947 FILLER_0_48_53
*3948 FILLER_0_48_531
*3949 FILLER_0_48_533
*3950 FILLER_0_48_545
*3951 FILLER_0_48_557
*3952 FILLER_0_48_569
*3953 FILLER_0_48_581
*3954 FILLER_0_48_587
*3955 FILLER_0_48_589
*3956 FILLER_0_48_601
*3957 FILLER_0_48_609
*3958 FILLER_0_48_615
*3959 FILLER_0_48_623
*3960 FILLER_0_48_65
*3961 FILLER_0_48_77
*3962 FILLER_0_48_83
*3963 FILLER_0_48_85
*3964 FILLER_0_48_97
*3965 FILLER_0_49_105
*3966 FILLER_0_49_111
*3967 FILLER_0_49_113
*3968 FILLER_0_49_125
*3969 FILLER_0_49_137
*3970 FILLER_0_49_149
*3971 FILLER_0_49_15
*3972 FILLER_0_49_161
*3973 FILLER_0_49_167
*3974 FILLER_0_49_169
*3975 FILLER_0_49_181
*3976 FILLER_0_49_193
*3977 FILLER_0_49_205
*3978 FILLER_0_49_217
*3979 FILLER_0_49_223
*3980 FILLER_0_49_225
*3981 FILLER_0_49_237
*3982 FILLER_0_49_249
*3983 FILLER_0_49_261
*3984 FILLER_0_49_27
*3985 FILLER_0_49_273
*3986 FILLER_0_49_279
*3987 FILLER_0_49_289
*3988 FILLER_0_49_3
*3989 FILLER_0_49_306
*3990 FILLER_0_49_344
*3991 FILLER_0_49_39
*3992 FILLER_0_49_390
*3993 FILLER_0_49_393
*3994 FILLER_0_49_401
*3995 FILLER_0_49_449
*3996 FILLER_0_49_461
*3997 FILLER_0_49_473
*3998 FILLER_0_49_485
*3999 FILLER_0_49_497
*4000 FILLER_0_49_503
*4001 FILLER_0_49_505
*4002 FILLER_0_49_51
*4003 FILLER_0_49_517
*4004 FILLER_0_49_529
*4005 FILLER_0_49_541
*4006 FILLER_0_49_55
*4007 FILLER_0_49_553
*4008 FILLER_0_49_559
*4009 FILLER_0_49_561
*4010 FILLER_0_49_57
*4011 FILLER_0_49_573
*4012 FILLER_0_49_585
*4013 FILLER_0_49_597
*4014 FILLER_0_49_609
*4015 FILLER_0_49_615
*4016 FILLER_0_49_617
*4017 FILLER_0_49_69
*4018 FILLER_0_49_81
*4019 FILLER_0_49_93
*4020 FILLER_0_4_109
*4021 FILLER_0_4_121
*4022 FILLER_0_4_133
*4023 FILLER_0_4_139
*4024 FILLER_0_4_141
*4025 FILLER_0_4_15
*4026 FILLER_0_4_153
*4027 FILLER_0_4_165
*4028 FILLER_0_4_177
*4029 FILLER_0_4_189
*4030 FILLER_0_4_195
*4031 FILLER_0_4_197
*4032 FILLER_0_4_209
*4033 FILLER_0_4_221
*4034 FILLER_0_4_233
*4035 FILLER_0_4_245
*4036 FILLER_0_4_251
*4037 FILLER_0_4_253
*4038 FILLER_0_4_265
*4039 FILLER_0_4_27
*4040 FILLER_0_4_277
*4041 FILLER_0_4_289
*4042 FILLER_0_4_29
*4043 FILLER_0_4_3
*4044 FILLER_0_4_301
*4045 FILLER_0_4_307
*4046 FILLER_0_4_309
*4047 FILLER_0_4_321
*4048 FILLER_0_4_333
*4049 FILLER_0_4_345
*4050 FILLER_0_4_357
*4051 FILLER_0_4_363
*4052 FILLER_0_4_365
*4053 FILLER_0_4_377
*4054 FILLER_0_4_389
*4055 FILLER_0_4_401
*4056 FILLER_0_4_41
*4057 FILLER_0_4_413
*4058 FILLER_0_4_419
*4059 FILLER_0_4_421
*4060 FILLER_0_4_433
*4061 FILLER_0_4_445
*4062 FILLER_0_4_457
*4063 FILLER_0_4_469
*4064 FILLER_0_4_475
*4065 FILLER_0_4_477
*4066 FILLER_0_4_489
*4067 FILLER_0_4_501
*4068 FILLER_0_4_513
*4069 FILLER_0_4_525
*4070 FILLER_0_4_53
*4071 FILLER_0_4_531
*4072 FILLER_0_4_533
*4073 FILLER_0_4_545
*4074 FILLER_0_4_557
*4075 FILLER_0_4_569
*4076 FILLER_0_4_581
*4077 FILLER_0_4_587
*4078 FILLER_0_4_589
*4079 FILLER_0_4_601
*4080 FILLER_0_4_613
*4081 FILLER_0_4_65
*4082 FILLER_0_4_77
*4083 FILLER_0_4_83
*4084 FILLER_0_4_85
*4085 FILLER_0_4_97
*4086 FILLER_0_50_109
*4087 FILLER_0_50_121
*4088 FILLER_0_50_133
*4089 FILLER_0_50_139
*4090 FILLER_0_50_141
*4091 FILLER_0_50_15
*4092 FILLER_0_50_153
*4093 FILLER_0_50_165
*4094 FILLER_0_50_177
*4095 FILLER_0_50_189
*4096 FILLER_0_50_195
*4097 FILLER_0_50_197
*4098 FILLER_0_50_209
*4099 FILLER_0_50_221
*4100 FILLER_0_50_233
*4101 FILLER_0_50_245
*4102 FILLER_0_50_251
*4103 FILLER_0_50_253
*4104 FILLER_0_50_265
*4105 FILLER_0_50_27
*4106 FILLER_0_50_277
*4107 FILLER_0_50_285
*4108 FILLER_0_50_29
*4109 FILLER_0_50_3
*4110 FILLER_0_50_309
*4111 FILLER_0_50_331
*4112 FILLER_0_50_365
*4113 FILLER_0_50_395
*4114 FILLER_0_50_407
*4115 FILLER_0_50_41
*4116 FILLER_0_50_437
*4117 FILLER_0_50_441
*4118 FILLER_0_50_450
*4119 FILLER_0_50_462
*4120 FILLER_0_50_474
*4121 FILLER_0_50_477
*4122 FILLER_0_50_489
*4123 FILLER_0_50_501
*4124 FILLER_0_50_513
*4125 FILLER_0_50_525
*4126 FILLER_0_50_53
*4127 FILLER_0_50_531
*4128 FILLER_0_50_533
*4129 FILLER_0_50_545
*4130 FILLER_0_50_557
*4131 FILLER_0_50_569
*4132 FILLER_0_50_581
*4133 FILLER_0_50_587
*4134 FILLER_0_50_589
*4135 FILLER_0_50_601
*4136 FILLER_0_50_613
*4137 FILLER_0_50_65
*4138 FILLER_0_50_77
*4139 FILLER_0_50_83
*4140 FILLER_0_50_85
*4141 FILLER_0_50_97
*4142 FILLER_0_51_105
*4143 FILLER_0_51_111
*4144 FILLER_0_51_113
*4145 FILLER_0_51_125
*4146 FILLER_0_51_137
*4147 FILLER_0_51_149
*4148 FILLER_0_51_15
*4149 FILLER_0_51_161
*4150 FILLER_0_51_167
*4151 FILLER_0_51_169
*4152 FILLER_0_51_181
*4153 FILLER_0_51_193
*4154 FILLER_0_51_205
*4155 FILLER_0_51_217
*4156 FILLER_0_51_223
*4157 FILLER_0_51_225
*4158 FILLER_0_51_237
*4159 FILLER_0_51_249
*4160 FILLER_0_51_261
*4161 FILLER_0_51_27
*4162 FILLER_0_51_273
*4163 FILLER_0_51_279
*4164 FILLER_0_51_281
*4165 FILLER_0_51_293
*4166 FILLER_0_51_3
*4167 FILLER_0_51_301
*4168 FILLER_0_51_331
*4169 FILLER_0_51_335
*4170 FILLER_0_51_345
*4171 FILLER_0_51_39
*4172 FILLER_0_51_390
*4173 FILLER_0_51_393
*4174 FILLER_0_51_405
*4175 FILLER_0_51_413
*4176 FILLER_0_51_416
*4177 FILLER_0_51_428
*4178 FILLER_0_51_439
*4179 FILLER_0_51_443
*4180 FILLER_0_51_447
*4181 FILLER_0_51_449
*4182 FILLER_0_51_461
*4183 FILLER_0_51_473
*4184 FILLER_0_51_481
*4185 FILLER_0_51_51
*4186 FILLER_0_51_513
*4187 FILLER_0_51_525
*4188 FILLER_0_51_537
*4189 FILLER_0_51_549
*4190 FILLER_0_51_55
*4191 FILLER_0_51_557
*4192 FILLER_0_51_561
*4193 FILLER_0_51_57
*4194 FILLER_0_51_573
*4195 FILLER_0_51_585
*4196 FILLER_0_51_597
*4197 FILLER_0_51_609
*4198 FILLER_0_51_615
*4199 FILLER_0_51_617
*4200 FILLER_0_51_69
*4201 FILLER_0_51_81
*4202 FILLER_0_51_93
*4203 FILLER_0_52_109
*4204 FILLER_0_52_121
*4205 FILLER_0_52_133
*4206 FILLER_0_52_139
*4207 FILLER_0_52_141
*4208 FILLER_0_52_15
*4209 FILLER_0_52_153
*4210 FILLER_0_52_165
*4211 FILLER_0_52_177
*4212 FILLER_0_52_189
*4213 FILLER_0_52_195
*4214 FILLER_0_52_197
*4215 FILLER_0_52_209
*4216 FILLER_0_52_221
*4217 FILLER_0_52_233
*4218 FILLER_0_52_245
*4219 FILLER_0_52_251
*4220 FILLER_0_52_253
*4221 FILLER_0_52_265
*4222 FILLER_0_52_27
*4223 FILLER_0_52_277
*4224 FILLER_0_52_289
*4225 FILLER_0_52_29
*4226 FILLER_0_52_3
*4227 FILLER_0_52_301
*4228 FILLER_0_52_305
*4229 FILLER_0_52_326
*4230 FILLER_0_52_355
*4231 FILLER_0_52_363
*4232 FILLER_0_52_365
*4233 FILLER_0_52_374
*4234 FILLER_0_52_386
*4235 FILLER_0_52_398
*4236 FILLER_0_52_41
*4237 FILLER_0_52_410
*4238 FILLER_0_52_418
*4239 FILLER_0_52_421
*4240 FILLER_0_52_433
*4241 FILLER_0_52_445
*4242 FILLER_0_52_457
*4243 FILLER_0_52_469
*4244 FILLER_0_52_475
*4245 FILLER_0_52_477
*4246 FILLER_0_52_481
*4247 FILLER_0_52_492
*4248 FILLER_0_52_516
*4249 FILLER_0_52_528
*4250 FILLER_0_52_53
*4251 FILLER_0_52_533
*4252 FILLER_0_52_545
*4253 FILLER_0_52_557
*4254 FILLER_0_52_569
*4255 FILLER_0_52_581
*4256 FILLER_0_52_587
*4257 FILLER_0_52_589
*4258 FILLER_0_52_601
*4259 FILLER_0_52_613
*4260 FILLER_0_52_65
*4261 FILLER_0_52_77
*4262 FILLER_0_52_83
*4263 FILLER_0_52_85
*4264 FILLER_0_52_97
*4265 FILLER_0_53_105
*4266 FILLER_0_53_111
*4267 FILLER_0_53_113
*4268 FILLER_0_53_125
*4269 FILLER_0_53_137
*4270 FILLER_0_53_149
*4271 FILLER_0_53_15
*4272 FILLER_0_53_161
*4273 FILLER_0_53_167
*4274 FILLER_0_53_169
*4275 FILLER_0_53_181
*4276 FILLER_0_53_193
*4277 FILLER_0_53_205
*4278 FILLER_0_53_217
*4279 FILLER_0_53_223
*4280 FILLER_0_53_225
*4281 FILLER_0_53_237
*4282 FILLER_0_53_249
*4283 FILLER_0_53_261
*4284 FILLER_0_53_27
*4285 FILLER_0_53_273
*4286 FILLER_0_53_279
*4287 FILLER_0_53_281
*4288 FILLER_0_53_293
*4289 FILLER_0_53_3
*4290 FILLER_0_53_305
*4291 FILLER_0_53_319
*4292 FILLER_0_53_330
*4293 FILLER_0_53_337
*4294 FILLER_0_53_349
*4295 FILLER_0_53_361
*4296 FILLER_0_53_373
*4297 FILLER_0_53_385
*4298 FILLER_0_53_39
*4299 FILLER_0_53_391
*4300 FILLER_0_53_393
*4301 FILLER_0_53_405
*4302 FILLER_0_53_417
*4303 FILLER_0_53_429
*4304 FILLER_0_53_441
*4305 FILLER_0_53_447
*4306 FILLER_0_53_449
*4307 FILLER_0_53_461
*4308 FILLER_0_53_473
*4309 FILLER_0_53_477
*4310 FILLER_0_53_500
*4311 FILLER_0_53_505
*4312 FILLER_0_53_51
*4313 FILLER_0_53_517
*4314 FILLER_0_53_529
*4315 FILLER_0_53_541
*4316 FILLER_0_53_55
*4317 FILLER_0_53_553
*4318 FILLER_0_53_559
*4319 FILLER_0_53_561
*4320 FILLER_0_53_57
*4321 FILLER_0_53_573
*4322 FILLER_0_53_585
*4323 FILLER_0_53_597
*4324 FILLER_0_53_609
*4325 FILLER_0_53_615
*4326 FILLER_0_53_617
*4327 FILLER_0_53_69
*4328 FILLER_0_53_81
*4329 FILLER_0_53_93
*4330 FILLER_0_54_109
*4331 FILLER_0_54_121
*4332 FILLER_0_54_13
*4333 FILLER_0_54_133
*4334 FILLER_0_54_139
*4335 FILLER_0_54_141
*4336 FILLER_0_54_153
*4337 FILLER_0_54_165
*4338 FILLER_0_54_177
*4339 FILLER_0_54_189
*4340 FILLER_0_54_195
*4341 FILLER_0_54_197
*4342 FILLER_0_54_209
*4343 FILLER_0_54_221
*4344 FILLER_0_54_233
*4345 FILLER_0_54_245
*4346 FILLER_0_54_25
*4347 FILLER_0_54_251
*4348 FILLER_0_54_253
*4349 FILLER_0_54_265
*4350 FILLER_0_54_277
*4351 FILLER_0_54_289
*4352 FILLER_0_54_29
*4353 FILLER_0_54_301
*4354 FILLER_0_54_307
*4355 FILLER_0_54_309
*4356 FILLER_0_54_321
*4357 FILLER_0_54_333
*4358 FILLER_0_54_345
*4359 FILLER_0_54_357
*4360 FILLER_0_54_363
*4361 FILLER_0_54_365
*4362 FILLER_0_54_377
*4363 FILLER_0_54_389
*4364 FILLER_0_54_401
*4365 FILLER_0_54_41
*4366 FILLER_0_54_413
*4367 FILLER_0_54_419
*4368 FILLER_0_54_421
*4369 FILLER_0_54_433
*4370 FILLER_0_54_445
*4371 FILLER_0_54_457
*4372 FILLER_0_54_469
*4373 FILLER_0_54_475
*4374 FILLER_0_54_477
*4375 FILLER_0_54_489
*4376 FILLER_0_54_501
*4377 FILLER_0_54_513
*4378 FILLER_0_54_525
*4379 FILLER_0_54_53
*4380 FILLER_0_54_531
*4381 FILLER_0_54_533
*4382 FILLER_0_54_545
*4383 FILLER_0_54_557
*4384 FILLER_0_54_569
*4385 FILLER_0_54_581
*4386 FILLER_0_54_587
*4387 FILLER_0_54_589
*4388 FILLER_0_54_601
*4389 FILLER_0_54_613
*4390 FILLER_0_54_65
*4391 FILLER_0_54_77
*4392 FILLER_0_54_83
*4393 FILLER_0_54_85
*4394 FILLER_0_54_9
*4395 FILLER_0_54_97
*4396 FILLER_0_55_105
*4397 FILLER_0_55_111
*4398 FILLER_0_55_113
*4399 FILLER_0_55_125
*4400 FILLER_0_55_137
*4401 FILLER_0_55_149
*4402 FILLER_0_55_15
*4403 FILLER_0_55_161
*4404 FILLER_0_55_167
*4405 FILLER_0_55_169
*4406 FILLER_0_55_181
*4407 FILLER_0_55_193
*4408 FILLER_0_55_205
*4409 FILLER_0_55_217
*4410 FILLER_0_55_223
*4411 FILLER_0_55_225
*4412 FILLER_0_55_237
*4413 FILLER_0_55_249
*4414 FILLER_0_55_261
*4415 FILLER_0_55_27
*4416 FILLER_0_55_273
*4417 FILLER_0_55_279
*4418 FILLER_0_55_281
*4419 FILLER_0_55_293
*4420 FILLER_0_55_3
*4421 FILLER_0_55_305
*4422 FILLER_0_55_317
*4423 FILLER_0_55_329
*4424 FILLER_0_55_335
*4425 FILLER_0_55_337
*4426 FILLER_0_55_349
*4427 FILLER_0_55_361
*4428 FILLER_0_55_373
*4429 FILLER_0_55_385
*4430 FILLER_0_55_39
*4431 FILLER_0_55_391
*4432 FILLER_0_55_393
*4433 FILLER_0_55_405
*4434 FILLER_0_55_417
*4435 FILLER_0_55_429
*4436 FILLER_0_55_441
*4437 FILLER_0_55_447
*4438 FILLER_0_55_449
*4439 FILLER_0_55_461
*4440 FILLER_0_55_473
*4441 FILLER_0_55_485
*4442 FILLER_0_55_497
*4443 FILLER_0_55_503
*4444 FILLER_0_55_505
*4445 FILLER_0_55_51
*4446 FILLER_0_55_517
*4447 FILLER_0_55_529
*4448 FILLER_0_55_541
*4449 FILLER_0_55_55
*4450 FILLER_0_55_553
*4451 FILLER_0_55_559
*4452 FILLER_0_55_561
*4453 FILLER_0_55_57
*4454 FILLER_0_55_573
*4455 FILLER_0_55_585
*4456 FILLER_0_55_597
*4457 FILLER_0_55_609
*4458 FILLER_0_55_615
*4459 FILLER_0_55_617
*4460 FILLER_0_55_69
*4461 FILLER_0_55_81
*4462 FILLER_0_55_93
*4463 FILLER_0_56_109
*4464 FILLER_0_56_121
*4465 FILLER_0_56_133
*4466 FILLER_0_56_139
*4467 FILLER_0_56_141
*4468 FILLER_0_56_15
*4469 FILLER_0_56_153
*4470 FILLER_0_56_165
*4471 FILLER_0_56_177
*4472 FILLER_0_56_189
*4473 FILLER_0_56_195
*4474 FILLER_0_56_197
*4475 FILLER_0_56_209
*4476 FILLER_0_56_221
*4477 FILLER_0_56_233
*4478 FILLER_0_56_245
*4479 FILLER_0_56_251
*4480 FILLER_0_56_253
*4481 FILLER_0_56_265
*4482 FILLER_0_56_27
*4483 FILLER_0_56_277
*4484 FILLER_0_56_289
*4485 FILLER_0_56_29
*4486 FILLER_0_56_3
*4487 FILLER_0_56_301
*4488 FILLER_0_56_307
*4489 FILLER_0_56_309
*4490 FILLER_0_56_321
*4491 FILLER_0_56_333
*4492 FILLER_0_56_345
*4493 FILLER_0_56_357
*4494 FILLER_0_56_363
*4495 FILLER_0_56_365
*4496 FILLER_0_56_377
*4497 FILLER_0_56_389
*4498 FILLER_0_56_401
*4499 FILLER_0_56_41
*4500 FILLER_0_56_413
*4501 FILLER_0_56_419
*4502 FILLER_0_56_421
*4503 FILLER_0_56_433
*4504 FILLER_0_56_445
*4505 FILLER_0_56_457
*4506 FILLER_0_56_469
*4507 FILLER_0_56_475
*4508 FILLER_0_56_477
*4509 FILLER_0_56_489
*4510 FILLER_0_56_501
*4511 FILLER_0_56_513
*4512 FILLER_0_56_525
*4513 FILLER_0_56_53
*4514 FILLER_0_56_531
*4515 FILLER_0_56_533
*4516 FILLER_0_56_545
*4517 FILLER_0_56_557
*4518 FILLER_0_56_569
*4519 FILLER_0_56_581
*4520 FILLER_0_56_587
*4521 FILLER_0_56_589
*4522 FILLER_0_56_601
*4523 FILLER_0_56_613
*4524 FILLER_0_56_65
*4525 FILLER_0_56_77
*4526 FILLER_0_56_83
*4527 FILLER_0_56_85
*4528 FILLER_0_56_97
*4529 FILLER_0_57_105
*4530 FILLER_0_57_111
*4531 FILLER_0_57_113
*4532 FILLER_0_57_125
*4533 FILLER_0_57_137
*4534 FILLER_0_57_149
*4535 FILLER_0_57_15
*4536 FILLER_0_57_161
*4537 FILLER_0_57_167
*4538 FILLER_0_57_169
*4539 FILLER_0_57_181
*4540 FILLER_0_57_193
*4541 FILLER_0_57_205
*4542 FILLER_0_57_217
*4543 FILLER_0_57_223
*4544 FILLER_0_57_225
*4545 FILLER_0_57_237
*4546 FILLER_0_57_249
*4547 FILLER_0_57_261
*4548 FILLER_0_57_27
*4549 FILLER_0_57_273
*4550 FILLER_0_57_279
*4551 FILLER_0_57_281
*4552 FILLER_0_57_293
*4553 FILLER_0_57_3
*4554 FILLER_0_57_305
*4555 FILLER_0_57_317
*4556 FILLER_0_57_329
*4557 FILLER_0_57_335
*4558 FILLER_0_57_337
*4559 FILLER_0_57_349
*4560 FILLER_0_57_361
*4561 FILLER_0_57_373
*4562 FILLER_0_57_385
*4563 FILLER_0_57_39
*4564 FILLER_0_57_391
*4565 FILLER_0_57_393
*4566 FILLER_0_57_405
*4567 FILLER_0_57_417
*4568 FILLER_0_57_429
*4569 FILLER_0_57_441
*4570 FILLER_0_57_447
*4571 FILLER_0_57_449
*4572 FILLER_0_57_461
*4573 FILLER_0_57_473
*4574 FILLER_0_57_485
*4575 FILLER_0_57_497
*4576 FILLER_0_57_503
*4577 FILLER_0_57_505
*4578 FILLER_0_57_51
*4579 FILLER_0_57_517
*4580 FILLER_0_57_529
*4581 FILLER_0_57_541
*4582 FILLER_0_57_55
*4583 FILLER_0_57_553
*4584 FILLER_0_57_559
*4585 FILLER_0_57_561
*4586 FILLER_0_57_57
*4587 FILLER_0_57_573
*4588 FILLER_0_57_585
*4589 FILLER_0_57_597
*4590 FILLER_0_57_609
*4591 FILLER_0_57_615
*4592 FILLER_0_57_617
*4593 FILLER_0_57_69
*4594 FILLER_0_57_81
*4595 FILLER_0_57_93
*4596 FILLER_0_58_109
*4597 FILLER_0_58_121
*4598 FILLER_0_58_133
*4599 FILLER_0_58_139
*4600 FILLER_0_58_141
*4601 FILLER_0_58_153
*4602 FILLER_0_58_165
*4603 FILLER_0_58_177
*4604 FILLER_0_58_189
*4605 FILLER_0_58_195
*4606 FILLER_0_58_197
*4607 FILLER_0_58_209
*4608 FILLER_0_58_221
*4609 FILLER_0_58_233
*4610 FILLER_0_58_245
*4611 FILLER_0_58_251
*4612 FILLER_0_58_253
*4613 FILLER_0_58_265
*4614 FILLER_0_58_27
*4615 FILLER_0_58_277
*4616 FILLER_0_58_289
*4617 FILLER_0_58_29
*4618 FILLER_0_58_3
*4619 FILLER_0_58_301
*4620 FILLER_0_58_307
*4621 FILLER_0_58_309
*4622 FILLER_0_58_321
*4623 FILLER_0_58_333
*4624 FILLER_0_58_345
*4625 FILLER_0_58_357
*4626 FILLER_0_58_363
*4627 FILLER_0_58_365
*4628 FILLER_0_58_377
*4629 FILLER_0_58_389
*4630 FILLER_0_58_401
*4631 FILLER_0_58_41
*4632 FILLER_0_58_413
*4633 FILLER_0_58_419
*4634 FILLER_0_58_421
*4635 FILLER_0_58_433
*4636 FILLER_0_58_445
*4637 FILLER_0_58_457
*4638 FILLER_0_58_469
*4639 FILLER_0_58_475
*4640 FILLER_0_58_477
*4641 FILLER_0_58_489
*4642 FILLER_0_58_501
*4643 FILLER_0_58_513
*4644 FILLER_0_58_525
*4645 FILLER_0_58_53
*4646 FILLER_0_58_531
*4647 FILLER_0_58_533
*4648 FILLER_0_58_545
*4649 FILLER_0_58_557
*4650 FILLER_0_58_569
*4651 FILLER_0_58_581
*4652 FILLER_0_58_587
*4653 FILLER_0_58_589
*4654 FILLER_0_58_601
*4655 FILLER_0_58_613
*4656 FILLER_0_58_65
*4657 FILLER_0_58_77
*4658 FILLER_0_58_83
*4659 FILLER_0_58_85
*4660 FILLER_0_58_97
*4661 FILLER_0_59_105
*4662 FILLER_0_59_111
*4663 FILLER_0_59_113
*4664 FILLER_0_59_125
*4665 FILLER_0_59_137
*4666 FILLER_0_59_149
*4667 FILLER_0_59_161
*4668 FILLER_0_59_167
*4669 FILLER_0_59_169
*4670 FILLER_0_59_181
*4671 FILLER_0_59_19
*4672 FILLER_0_59_193
*4673 FILLER_0_59_205
*4674 FILLER_0_59_217
*4675 FILLER_0_59_223
*4676 FILLER_0_59_225
*4677 FILLER_0_59_237
*4678 FILLER_0_59_249
*4679 FILLER_0_59_261
*4680 FILLER_0_59_273
*4681 FILLER_0_59_279
*4682 FILLER_0_59_281
*4683 FILLER_0_59_293
*4684 FILLER_0_59_305
*4685 FILLER_0_59_31
*4686 FILLER_0_59_317
*4687 FILLER_0_59_329
*4688 FILLER_0_59_335
*4689 FILLER_0_59_337
*4690 FILLER_0_59_349
*4691 FILLER_0_59_361
*4692 FILLER_0_59_373
*4693 FILLER_0_59_385
*4694 FILLER_0_59_391
*4695 FILLER_0_59_393
*4696 FILLER_0_59_405
*4697 FILLER_0_59_417
*4698 FILLER_0_59_429
*4699 FILLER_0_59_43
*4700 FILLER_0_59_441
*4701 FILLER_0_59_447
*4702 FILLER_0_59_449
*4703 FILLER_0_59_461
*4704 FILLER_0_59_473
*4705 FILLER_0_59_485
*4706 FILLER_0_59_497
*4707 FILLER_0_59_503
*4708 FILLER_0_59_505
*4709 FILLER_0_59_517
*4710 FILLER_0_59_529
*4711 FILLER_0_59_541
*4712 FILLER_0_59_55
*4713 FILLER_0_59_553
*4714 FILLER_0_59_559
*4715 FILLER_0_59_561
*4716 FILLER_0_59_57
*4717 FILLER_0_59_573
*4718 FILLER_0_59_585
*4719 FILLER_0_59_597
*4720 FILLER_0_59_609
*4721 FILLER_0_59_615
*4722 FILLER_0_59_617
*4723 FILLER_0_59_69
*4724 FILLER_0_59_7
*4725 FILLER_0_59_81
*4726 FILLER_0_59_93
*4727 FILLER_0_5_105
*4728 FILLER_0_5_111
*4729 FILLER_0_5_113
*4730 FILLER_0_5_125
*4731 FILLER_0_5_137
*4732 FILLER_0_5_149
*4733 FILLER_0_5_15
*4734 FILLER_0_5_161
*4735 FILLER_0_5_167
*4736 FILLER_0_5_169
*4737 FILLER_0_5_181
*4738 FILLER_0_5_193
*4739 FILLER_0_5_205
*4740 FILLER_0_5_217
*4741 FILLER_0_5_223
*4742 FILLER_0_5_225
*4743 FILLER_0_5_237
*4744 FILLER_0_5_249
*4745 FILLER_0_5_261
*4746 FILLER_0_5_27
*4747 FILLER_0_5_273
*4748 FILLER_0_5_279
*4749 FILLER_0_5_281
*4750 FILLER_0_5_293
*4751 FILLER_0_5_3
*4752 FILLER_0_5_305
*4753 FILLER_0_5_317
*4754 FILLER_0_5_329
*4755 FILLER_0_5_335
*4756 FILLER_0_5_337
*4757 FILLER_0_5_349
*4758 FILLER_0_5_361
*4759 FILLER_0_5_373
*4760 FILLER_0_5_385
*4761 FILLER_0_5_39
*4762 FILLER_0_5_391
*4763 FILLER_0_5_393
*4764 FILLER_0_5_405
*4765 FILLER_0_5_417
*4766 FILLER_0_5_429
*4767 FILLER_0_5_441
*4768 FILLER_0_5_447
*4769 FILLER_0_5_449
*4770 FILLER_0_5_461
*4771 FILLER_0_5_473
*4772 FILLER_0_5_485
*4773 FILLER_0_5_497
*4774 FILLER_0_5_503
*4775 FILLER_0_5_505
*4776 FILLER_0_5_51
*4777 FILLER_0_5_517
*4778 FILLER_0_5_529
*4779 FILLER_0_5_541
*4780 FILLER_0_5_55
*4781 FILLER_0_5_553
*4782 FILLER_0_5_559
*4783 FILLER_0_5_561
*4784 FILLER_0_5_57
*4785 FILLER_0_5_573
*4786 FILLER_0_5_585
*4787 FILLER_0_5_597
*4788 FILLER_0_5_609
*4789 FILLER_0_5_615
*4790 FILLER_0_5_617
*4791 FILLER_0_5_69
*4792 FILLER_0_5_81
*4793 FILLER_0_5_93
*4794 FILLER_0_60_109
*4795 FILLER_0_60_121
*4796 FILLER_0_60_133
*4797 FILLER_0_60_139
*4798 FILLER_0_60_141
*4799 FILLER_0_60_15
*4800 FILLER_0_60_153
*4801 FILLER_0_60_165
*4802 FILLER_0_60_177
*4803 FILLER_0_60_189
*4804 FILLER_0_60_195
*4805 FILLER_0_60_197
*4806 FILLER_0_60_209
*4807 FILLER_0_60_221
*4808 FILLER_0_60_233
*4809 FILLER_0_60_245
*4810 FILLER_0_60_251
*4811 FILLER_0_60_253
*4812 FILLER_0_60_265
*4813 FILLER_0_60_27
*4814 FILLER_0_60_277
*4815 FILLER_0_60_289
*4816 FILLER_0_60_29
*4817 FILLER_0_60_3
*4818 FILLER_0_60_301
*4819 FILLER_0_60_307
*4820 FILLER_0_60_309
*4821 FILLER_0_60_321
*4822 FILLER_0_60_333
*4823 FILLER_0_60_345
*4824 FILLER_0_60_357
*4825 FILLER_0_60_363
*4826 FILLER_0_60_365
*4827 FILLER_0_60_377
*4828 FILLER_0_60_389
*4829 FILLER_0_60_401
*4830 FILLER_0_60_41
*4831 FILLER_0_60_413
*4832 FILLER_0_60_419
*4833 FILLER_0_60_421
*4834 FILLER_0_60_433
*4835 FILLER_0_60_445
*4836 FILLER_0_60_457
*4837 FILLER_0_60_469
*4838 FILLER_0_60_475
*4839 FILLER_0_60_477
*4840 FILLER_0_60_489
*4841 FILLER_0_60_501
*4842 FILLER_0_60_513
*4843 FILLER_0_60_525
*4844 FILLER_0_60_53
*4845 FILLER_0_60_531
*4846 FILLER_0_60_533
*4847 FILLER_0_60_545
*4848 FILLER_0_60_557
*4849 FILLER_0_60_569
*4850 FILLER_0_60_581
*4851 FILLER_0_60_587
*4852 FILLER_0_60_589
*4853 FILLER_0_60_601
*4854 FILLER_0_60_613
*4855 FILLER_0_60_65
*4856 FILLER_0_60_77
*4857 FILLER_0_60_83
*4858 FILLER_0_60_85
*4859 FILLER_0_60_97
*4860 FILLER_0_61_105
*4861 FILLER_0_61_111
*4862 FILLER_0_61_113
*4863 FILLER_0_61_125
*4864 FILLER_0_61_137
*4865 FILLER_0_61_149
*4866 FILLER_0_61_15
*4867 FILLER_0_61_161
*4868 FILLER_0_61_167
*4869 FILLER_0_61_169
*4870 FILLER_0_61_181
*4871 FILLER_0_61_193
*4872 FILLER_0_61_205
*4873 FILLER_0_61_217
*4874 FILLER_0_61_223
*4875 FILLER_0_61_225
*4876 FILLER_0_61_237
*4877 FILLER_0_61_249
*4878 FILLER_0_61_261
*4879 FILLER_0_61_27
*4880 FILLER_0_61_273
*4881 FILLER_0_61_279
*4882 FILLER_0_61_281
*4883 FILLER_0_61_293
*4884 FILLER_0_61_3
*4885 FILLER_0_61_305
*4886 FILLER_0_61_317
*4887 FILLER_0_61_329
*4888 FILLER_0_61_335
*4889 FILLER_0_61_337
*4890 FILLER_0_61_349
*4891 FILLER_0_61_361
*4892 FILLER_0_61_373
*4893 FILLER_0_61_385
*4894 FILLER_0_61_39
*4895 FILLER_0_61_391
*4896 FILLER_0_61_393
*4897 FILLER_0_61_405
*4898 FILLER_0_61_417
*4899 FILLER_0_61_429
*4900 FILLER_0_61_441
*4901 FILLER_0_61_447
*4902 FILLER_0_61_449
*4903 FILLER_0_61_461
*4904 FILLER_0_61_473
*4905 FILLER_0_61_485
*4906 FILLER_0_61_497
*4907 FILLER_0_61_503
*4908 FILLER_0_61_505
*4909 FILLER_0_61_51
*4910 FILLER_0_61_517
*4911 FILLER_0_61_529
*4912 FILLER_0_61_541
*4913 FILLER_0_61_55
*4914 FILLER_0_61_553
*4915 FILLER_0_61_559
*4916 FILLER_0_61_561
*4917 FILLER_0_61_57
*4918 FILLER_0_61_573
*4919 FILLER_0_61_585
*4920 FILLER_0_61_597
*4921 FILLER_0_61_609
*4922 FILLER_0_61_615
*4923 FILLER_0_61_617
*4924 FILLER_0_61_69
*4925 FILLER_0_61_81
*4926 FILLER_0_61_93
*4927 FILLER_0_62_109
*4928 FILLER_0_62_121
*4929 FILLER_0_62_133
*4930 FILLER_0_62_139
*4931 FILLER_0_62_141
*4932 FILLER_0_62_15
*4933 FILLER_0_62_153
*4934 FILLER_0_62_165
*4935 FILLER_0_62_177
*4936 FILLER_0_62_189
*4937 FILLER_0_62_195
*4938 FILLER_0_62_197
*4939 FILLER_0_62_209
*4940 FILLER_0_62_221
*4941 FILLER_0_62_233
*4942 FILLER_0_62_245
*4943 FILLER_0_62_251
*4944 FILLER_0_62_253
*4945 FILLER_0_62_265
*4946 FILLER_0_62_27
*4947 FILLER_0_62_277
*4948 FILLER_0_62_289
*4949 FILLER_0_62_29
*4950 FILLER_0_62_3
*4951 FILLER_0_62_301
*4952 FILLER_0_62_307
*4953 FILLER_0_62_309
*4954 FILLER_0_62_321
*4955 FILLER_0_62_333
*4956 FILLER_0_62_345
*4957 FILLER_0_62_357
*4958 FILLER_0_62_363
*4959 FILLER_0_62_365
*4960 FILLER_0_62_377
*4961 FILLER_0_62_389
*4962 FILLER_0_62_401
*4963 FILLER_0_62_41
*4964 FILLER_0_62_413
*4965 FILLER_0_62_419
*4966 FILLER_0_62_421
*4967 FILLER_0_62_433
*4968 FILLER_0_62_445
*4969 FILLER_0_62_457
*4970 FILLER_0_62_469
*4971 FILLER_0_62_475
*4972 FILLER_0_62_477
*4973 FILLER_0_62_489
*4974 FILLER_0_62_501
*4975 FILLER_0_62_513
*4976 FILLER_0_62_525
*4977 FILLER_0_62_53
*4978 FILLER_0_62_531
*4979 FILLER_0_62_533
*4980 FILLER_0_62_545
*4981 FILLER_0_62_557
*4982 FILLER_0_62_569
*4983 FILLER_0_62_581
*4984 FILLER_0_62_587
*4985 FILLER_0_62_589
*4986 FILLER_0_62_601
*4987 FILLER_0_62_613
*4988 FILLER_0_62_621
*4989 FILLER_0_62_65
*4990 FILLER_0_62_77
*4991 FILLER_0_62_83
*4992 FILLER_0_62_85
*4993 FILLER_0_62_97
*4994 FILLER_0_63_105
*4995 FILLER_0_63_111
*4996 FILLER_0_63_113
*4997 FILLER_0_63_125
*4998 FILLER_0_63_137
*4999 FILLER_0_63_149
*5000 FILLER_0_63_15
*5001 FILLER_0_63_161
*5002 FILLER_0_63_167
*5003 FILLER_0_63_169
*5004 FILLER_0_63_181
*5005 FILLER_0_63_193
*5006 FILLER_0_63_205
*5007 FILLER_0_63_217
*5008 FILLER_0_63_223
*5009 FILLER_0_63_225
*5010 FILLER_0_63_237
*5011 FILLER_0_63_249
*5012 FILLER_0_63_261
*5013 FILLER_0_63_27
*5014 FILLER_0_63_273
*5015 FILLER_0_63_279
*5016 FILLER_0_63_281
*5017 FILLER_0_63_293
*5018 FILLER_0_63_3
*5019 FILLER_0_63_305
*5020 FILLER_0_63_317
*5021 FILLER_0_63_329
*5022 FILLER_0_63_335
*5023 FILLER_0_63_337
*5024 FILLER_0_63_349
*5025 FILLER_0_63_361
*5026 FILLER_0_63_373
*5027 FILLER_0_63_385
*5028 FILLER_0_63_39
*5029 FILLER_0_63_391
*5030 FILLER_0_63_393
*5031 FILLER_0_63_405
*5032 FILLER_0_63_417
*5033 FILLER_0_63_429
*5034 FILLER_0_63_441
*5035 FILLER_0_63_447
*5036 FILLER_0_63_449
*5037 FILLER_0_63_461
*5038 FILLER_0_63_473
*5039 FILLER_0_63_485
*5040 FILLER_0_63_497
*5041 FILLER_0_63_503
*5042 FILLER_0_63_505
*5043 FILLER_0_63_51
*5044 FILLER_0_63_517
*5045 FILLER_0_63_529
*5046 FILLER_0_63_541
*5047 FILLER_0_63_55
*5048 FILLER_0_63_553
*5049 FILLER_0_63_559
*5050 FILLER_0_63_561
*5051 FILLER_0_63_57
*5052 FILLER_0_63_573
*5053 FILLER_0_63_585
*5054 FILLER_0_63_597
*5055 FILLER_0_63_609
*5056 FILLER_0_63_615
*5057 FILLER_0_63_617
*5058 FILLER_0_63_69
*5059 FILLER_0_63_81
*5060 FILLER_0_63_93
*5061 FILLER_0_64_109
*5062 FILLER_0_64_121
*5063 FILLER_0_64_133
*5064 FILLER_0_64_139
*5065 FILLER_0_64_141
*5066 FILLER_0_64_153
*5067 FILLER_0_64_165
*5068 FILLER_0_64_177
*5069 FILLER_0_64_18
*5070 FILLER_0_64_189
*5071 FILLER_0_64_195
*5072 FILLER_0_64_197
*5073 FILLER_0_64_209
*5074 FILLER_0_64_221
*5075 FILLER_0_64_233
*5076 FILLER_0_64_245
*5077 FILLER_0_64_251
*5078 FILLER_0_64_253
*5079 FILLER_0_64_26
*5080 FILLER_0_64_265
*5081 FILLER_0_64_277
*5082 FILLER_0_64_289
*5083 FILLER_0_64_29
*5084 FILLER_0_64_301
*5085 FILLER_0_64_307
*5086 FILLER_0_64_309
*5087 FILLER_0_64_321
*5088 FILLER_0_64_333
*5089 FILLER_0_64_345
*5090 FILLER_0_64_357
*5091 FILLER_0_64_363
*5092 FILLER_0_64_365
*5093 FILLER_0_64_377
*5094 FILLER_0_64_389
*5095 FILLER_0_64_401
*5096 FILLER_0_64_41
*5097 FILLER_0_64_413
*5098 FILLER_0_64_419
*5099 FILLER_0_64_421
*5100 FILLER_0_64_433
*5101 FILLER_0_64_445
*5102 FILLER_0_64_457
*5103 FILLER_0_64_469
*5104 FILLER_0_64_475
*5105 FILLER_0_64_477
*5106 FILLER_0_64_489
*5107 FILLER_0_64_501
*5108 FILLER_0_64_513
*5109 FILLER_0_64_525
*5110 FILLER_0_64_53
*5111 FILLER_0_64_531
*5112 FILLER_0_64_533
*5113 FILLER_0_64_545
*5114 FILLER_0_64_557
*5115 FILLER_0_64_569
*5116 FILLER_0_64_581
*5117 FILLER_0_64_587
*5118 FILLER_0_64_589
*5119 FILLER_0_64_6
*5120 FILLER_0_64_601
*5121 FILLER_0_64_613
*5122 FILLER_0_64_65
*5123 FILLER_0_64_77
*5124 FILLER_0_64_83
*5125 FILLER_0_64_85
*5126 FILLER_0_64_97
*5127 FILLER_0_65_105
*5128 FILLER_0_65_111
*5129 FILLER_0_65_113
*5130 FILLER_0_65_125
*5131 FILLER_0_65_137
*5132 FILLER_0_65_149
*5133 FILLER_0_65_15
*5134 FILLER_0_65_161
*5135 FILLER_0_65_167
*5136 FILLER_0_65_169
*5137 FILLER_0_65_181
*5138 FILLER_0_65_193
*5139 FILLER_0_65_205
*5140 FILLER_0_65_217
*5141 FILLER_0_65_223
*5142 FILLER_0_65_225
*5143 FILLER_0_65_237
*5144 FILLER_0_65_249
*5145 FILLER_0_65_261
*5146 FILLER_0_65_27
*5147 FILLER_0_65_273
*5148 FILLER_0_65_279
*5149 FILLER_0_65_281
*5150 FILLER_0_65_293
*5151 FILLER_0_65_3
*5152 FILLER_0_65_305
*5153 FILLER_0_65_317
*5154 FILLER_0_65_329
*5155 FILLER_0_65_335
*5156 FILLER_0_65_337
*5157 FILLER_0_65_349
*5158 FILLER_0_65_361
*5159 FILLER_0_65_373
*5160 FILLER_0_65_385
*5161 FILLER_0_65_39
*5162 FILLER_0_65_391
*5163 FILLER_0_65_393
*5164 FILLER_0_65_405
*5165 FILLER_0_65_417
*5166 FILLER_0_65_429
*5167 FILLER_0_65_441
*5168 FILLER_0_65_447
*5169 FILLER_0_65_449
*5170 FILLER_0_65_461
*5171 FILLER_0_65_473
*5172 FILLER_0_65_485
*5173 FILLER_0_65_497
*5174 FILLER_0_65_503
*5175 FILLER_0_65_505
*5176 FILLER_0_65_51
*5177 FILLER_0_65_517
*5178 FILLER_0_65_529
*5179 FILLER_0_65_541
*5180 FILLER_0_65_55
*5181 FILLER_0_65_553
*5182 FILLER_0_65_559
*5183 FILLER_0_65_561
*5184 FILLER_0_65_57
*5185 FILLER_0_65_573
*5186 FILLER_0_65_585
*5187 FILLER_0_65_597
*5188 FILLER_0_65_609
*5189 FILLER_0_65_615
*5190 FILLER_0_65_617
*5191 FILLER_0_65_69
*5192 FILLER_0_65_81
*5193 FILLER_0_65_93
*5194 FILLER_0_66_109
*5195 FILLER_0_66_121
*5196 FILLER_0_66_133
*5197 FILLER_0_66_139
*5198 FILLER_0_66_141
*5199 FILLER_0_66_15
*5200 FILLER_0_66_153
*5201 FILLER_0_66_165
*5202 FILLER_0_66_177
*5203 FILLER_0_66_189
*5204 FILLER_0_66_195
*5205 FILLER_0_66_197
*5206 FILLER_0_66_209
*5207 FILLER_0_66_221
*5208 FILLER_0_66_233
*5209 FILLER_0_66_245
*5210 FILLER_0_66_251
*5211 FILLER_0_66_253
*5212 FILLER_0_66_265
*5213 FILLER_0_66_27
*5214 FILLER_0_66_277
*5215 FILLER_0_66_289
*5216 FILLER_0_66_29
*5217 FILLER_0_66_3
*5218 FILLER_0_66_301
*5219 FILLER_0_66_307
*5220 FILLER_0_66_309
*5221 FILLER_0_66_321
*5222 FILLER_0_66_333
*5223 FILLER_0_66_345
*5224 FILLER_0_66_357
*5225 FILLER_0_66_363
*5226 FILLER_0_66_365
*5227 FILLER_0_66_377
*5228 FILLER_0_66_389
*5229 FILLER_0_66_401
*5230 FILLER_0_66_41
*5231 FILLER_0_66_413
*5232 FILLER_0_66_419
*5233 FILLER_0_66_421
*5234 FILLER_0_66_433
*5235 FILLER_0_66_445
*5236 FILLER_0_66_457
*5237 FILLER_0_66_469
*5238 FILLER_0_66_475
*5239 FILLER_0_66_477
*5240 FILLER_0_66_489
*5241 FILLER_0_66_501
*5242 FILLER_0_66_513
*5243 FILLER_0_66_525
*5244 FILLER_0_66_53
*5245 FILLER_0_66_531
*5246 FILLER_0_66_533
*5247 FILLER_0_66_545
*5248 FILLER_0_66_557
*5249 FILLER_0_66_569
*5250 FILLER_0_66_581
*5251 FILLER_0_66_587
*5252 FILLER_0_66_589
*5253 FILLER_0_66_601
*5254 FILLER_0_66_613
*5255 FILLER_0_66_65
*5256 FILLER_0_66_77
*5257 FILLER_0_66_83
*5258 FILLER_0_66_85
*5259 FILLER_0_66_97
*5260 FILLER_0_67_105
*5261 FILLER_0_67_111
*5262 FILLER_0_67_113
*5263 FILLER_0_67_125
*5264 FILLER_0_67_137
*5265 FILLER_0_67_149
*5266 FILLER_0_67_15
*5267 FILLER_0_67_161
*5268 FILLER_0_67_167
*5269 FILLER_0_67_169
*5270 FILLER_0_67_181
*5271 FILLER_0_67_193
*5272 FILLER_0_67_205
*5273 FILLER_0_67_217
*5274 FILLER_0_67_223
*5275 FILLER_0_67_225
*5276 FILLER_0_67_237
*5277 FILLER_0_67_249
*5278 FILLER_0_67_261
*5279 FILLER_0_67_27
*5280 FILLER_0_67_273
*5281 FILLER_0_67_279
*5282 FILLER_0_67_281
*5283 FILLER_0_67_293
*5284 FILLER_0_67_3
*5285 FILLER_0_67_305
*5286 FILLER_0_67_317
*5287 FILLER_0_67_329
*5288 FILLER_0_67_335
*5289 FILLER_0_67_337
*5290 FILLER_0_67_349
*5291 FILLER_0_67_361
*5292 FILLER_0_67_373
*5293 FILLER_0_67_385
*5294 FILLER_0_67_39
*5295 FILLER_0_67_391
*5296 FILLER_0_67_393
*5297 FILLER_0_67_405
*5298 FILLER_0_67_417
*5299 FILLER_0_67_429
*5300 FILLER_0_67_441
*5301 FILLER_0_67_447
*5302 FILLER_0_67_449
*5303 FILLER_0_67_461
*5304 FILLER_0_67_473
*5305 FILLER_0_67_485
*5306 FILLER_0_67_497
*5307 FILLER_0_67_503
*5308 FILLER_0_67_505
*5309 FILLER_0_67_51
*5310 FILLER_0_67_517
*5311 FILLER_0_67_529
*5312 FILLER_0_67_541
*5313 FILLER_0_67_55
*5314 FILLER_0_67_553
*5315 FILLER_0_67_559
*5316 FILLER_0_67_561
*5317 FILLER_0_67_57
*5318 FILLER_0_67_573
*5319 FILLER_0_67_585
*5320 FILLER_0_67_597
*5321 FILLER_0_67_609
*5322 FILLER_0_67_615
*5323 FILLER_0_67_617
*5324 FILLER_0_67_69
*5325 FILLER_0_67_81
*5326 FILLER_0_67_93
*5327 FILLER_0_68_109
*5328 FILLER_0_68_121
*5329 FILLER_0_68_133
*5330 FILLER_0_68_139
*5331 FILLER_0_68_141
*5332 FILLER_0_68_15
*5333 FILLER_0_68_153
*5334 FILLER_0_68_165
*5335 FILLER_0_68_177
*5336 FILLER_0_68_189
*5337 FILLER_0_68_195
*5338 FILLER_0_68_197
*5339 FILLER_0_68_209
*5340 FILLER_0_68_221
*5341 FILLER_0_68_233
*5342 FILLER_0_68_245
*5343 FILLER_0_68_251
*5344 FILLER_0_68_253
*5345 FILLER_0_68_265
*5346 FILLER_0_68_27
*5347 FILLER_0_68_277
*5348 FILLER_0_68_289
*5349 FILLER_0_68_29
*5350 FILLER_0_68_3
*5351 FILLER_0_68_301
*5352 FILLER_0_68_307
*5353 FILLER_0_68_309
*5354 FILLER_0_68_321
*5355 FILLER_0_68_333
*5356 FILLER_0_68_345
*5357 FILLER_0_68_357
*5358 FILLER_0_68_363
*5359 FILLER_0_68_365
*5360 FILLER_0_68_377
*5361 FILLER_0_68_389
*5362 FILLER_0_68_401
*5363 FILLER_0_68_41
*5364 FILLER_0_68_413
*5365 FILLER_0_68_419
*5366 FILLER_0_68_421
*5367 FILLER_0_68_433
*5368 FILLER_0_68_445
*5369 FILLER_0_68_457
*5370 FILLER_0_68_469
*5371 FILLER_0_68_475
*5372 FILLER_0_68_477
*5373 FILLER_0_68_489
*5374 FILLER_0_68_501
*5375 FILLER_0_68_513
*5376 FILLER_0_68_525
*5377 FILLER_0_68_53
*5378 FILLER_0_68_531
*5379 FILLER_0_68_533
*5380 FILLER_0_68_545
*5381 FILLER_0_68_557
*5382 FILLER_0_68_569
*5383 FILLER_0_68_581
*5384 FILLER_0_68_587
*5385 FILLER_0_68_589
*5386 FILLER_0_68_601
*5387 FILLER_0_68_613
*5388 FILLER_0_68_65
*5389 FILLER_0_68_77
*5390 FILLER_0_68_83
*5391 FILLER_0_68_85
*5392 FILLER_0_68_97
*5393 FILLER_0_69_105
*5394 FILLER_0_69_111
*5395 FILLER_0_69_113
*5396 FILLER_0_69_125
*5397 FILLER_0_69_137
*5398 FILLER_0_69_149
*5399 FILLER_0_69_161
*5400 FILLER_0_69_167
*5401 FILLER_0_69_169
*5402 FILLER_0_69_181
*5403 FILLER_0_69_19
*5404 FILLER_0_69_193
*5405 FILLER_0_69_205
*5406 FILLER_0_69_217
*5407 FILLER_0_69_223
*5408 FILLER_0_69_225
*5409 FILLER_0_69_237
*5410 FILLER_0_69_249
*5411 FILLER_0_69_261
*5412 FILLER_0_69_273
*5413 FILLER_0_69_279
*5414 FILLER_0_69_281
*5415 FILLER_0_69_293
*5416 FILLER_0_69_305
*5417 FILLER_0_69_31
*5418 FILLER_0_69_317
*5419 FILLER_0_69_329
*5420 FILLER_0_69_335
*5421 FILLER_0_69_337
*5422 FILLER_0_69_349
*5423 FILLER_0_69_361
*5424 FILLER_0_69_373
*5425 FILLER_0_69_385
*5426 FILLER_0_69_391
*5427 FILLER_0_69_393
*5428 FILLER_0_69_405
*5429 FILLER_0_69_417
*5430 FILLER_0_69_429
*5431 FILLER_0_69_43
*5432 FILLER_0_69_441
*5433 FILLER_0_69_447
*5434 FILLER_0_69_449
*5435 FILLER_0_69_461
*5436 FILLER_0_69_473
*5437 FILLER_0_69_485
*5438 FILLER_0_69_497
*5439 FILLER_0_69_503
*5440 FILLER_0_69_505
*5441 FILLER_0_69_517
*5442 FILLER_0_69_529
*5443 FILLER_0_69_541
*5444 FILLER_0_69_55
*5445 FILLER_0_69_553
*5446 FILLER_0_69_559
*5447 FILLER_0_69_561
*5448 FILLER_0_69_57
*5449 FILLER_0_69_573
*5450 FILLER_0_69_585
*5451 FILLER_0_69_597
*5452 FILLER_0_69_609
*5453 FILLER_0_69_615
*5454 FILLER_0_69_617
*5455 FILLER_0_69_69
*5456 FILLER_0_69_7
*5457 FILLER_0_69_81
*5458 FILLER_0_69_93
*5459 FILLER_0_6_109
*5460 FILLER_0_6_121
*5461 FILLER_0_6_133
*5462 FILLER_0_6_139
*5463 FILLER_0_6_141
*5464 FILLER_0_6_15
*5465 FILLER_0_6_153
*5466 FILLER_0_6_165
*5467 FILLER_0_6_177
*5468 FILLER_0_6_189
*5469 FILLER_0_6_195
*5470 FILLER_0_6_197
*5471 FILLER_0_6_209
*5472 FILLER_0_6_221
*5473 FILLER_0_6_233
*5474 FILLER_0_6_245
*5475 FILLER_0_6_251
*5476 FILLER_0_6_253
*5477 FILLER_0_6_265
*5478 FILLER_0_6_27
*5479 FILLER_0_6_277
*5480 FILLER_0_6_289
*5481 FILLER_0_6_29
*5482 FILLER_0_6_3
*5483 FILLER_0_6_301
*5484 FILLER_0_6_307
*5485 FILLER_0_6_309
*5486 FILLER_0_6_321
*5487 FILLER_0_6_333
*5488 FILLER_0_6_345
*5489 FILLER_0_6_357
*5490 FILLER_0_6_363
*5491 FILLER_0_6_365
*5492 FILLER_0_6_377
*5493 FILLER_0_6_389
*5494 FILLER_0_6_401
*5495 FILLER_0_6_41
*5496 FILLER_0_6_413
*5497 FILLER_0_6_419
*5498 FILLER_0_6_421
*5499 FILLER_0_6_433
*5500 FILLER_0_6_445
*5501 FILLER_0_6_457
*5502 FILLER_0_6_469
*5503 FILLER_0_6_475
*5504 FILLER_0_6_477
*5505 FILLER_0_6_489
*5506 FILLER_0_6_501
*5507 FILLER_0_6_513
*5508 FILLER_0_6_525
*5509 FILLER_0_6_53
*5510 FILLER_0_6_531
*5511 FILLER_0_6_533
*5512 FILLER_0_6_545
*5513 FILLER_0_6_557
*5514 FILLER_0_6_569
*5515 FILLER_0_6_581
*5516 FILLER_0_6_587
*5517 FILLER_0_6_589
*5518 FILLER_0_6_601
*5519 FILLER_0_6_613
*5520 FILLER_0_6_65
*5521 FILLER_0_6_77
*5522 FILLER_0_6_83
*5523 FILLER_0_6_85
*5524 FILLER_0_6_97
*5525 FILLER_0_70_109
*5526 FILLER_0_70_121
*5527 FILLER_0_70_133
*5528 FILLER_0_70_139
*5529 FILLER_0_70_141
*5530 FILLER_0_70_15
*5531 FILLER_0_70_153
*5532 FILLER_0_70_165
*5533 FILLER_0_70_177
*5534 FILLER_0_70_189
*5535 FILLER_0_70_195
*5536 FILLER_0_70_197
*5537 FILLER_0_70_209
*5538 FILLER_0_70_221
*5539 FILLER_0_70_233
*5540 FILLER_0_70_245
*5541 FILLER_0_70_251
*5542 FILLER_0_70_253
*5543 FILLER_0_70_265
*5544 FILLER_0_70_27
*5545 FILLER_0_70_277
*5546 FILLER_0_70_289
*5547 FILLER_0_70_29
*5548 FILLER_0_70_3
*5549 FILLER_0_70_301
*5550 FILLER_0_70_307
*5551 FILLER_0_70_309
*5552 FILLER_0_70_321
*5553 FILLER_0_70_333
*5554 FILLER_0_70_345
*5555 FILLER_0_70_357
*5556 FILLER_0_70_363
*5557 FILLER_0_70_365
*5558 FILLER_0_70_377
*5559 FILLER_0_70_389
*5560 FILLER_0_70_401
*5561 FILLER_0_70_41
*5562 FILLER_0_70_413
*5563 FILLER_0_70_419
*5564 FILLER_0_70_421
*5565 FILLER_0_70_433
*5566 FILLER_0_70_445
*5567 FILLER_0_70_457
*5568 FILLER_0_70_469
*5569 FILLER_0_70_475
*5570 FILLER_0_70_477
*5571 FILLER_0_70_489
*5572 FILLER_0_70_501
*5573 FILLER_0_70_513
*5574 FILLER_0_70_525
*5575 FILLER_0_70_53
*5576 FILLER_0_70_531
*5577 FILLER_0_70_533
*5578 FILLER_0_70_545
*5579 FILLER_0_70_557
*5580 FILLER_0_70_569
*5581 FILLER_0_70_581
*5582 FILLER_0_70_587
*5583 FILLER_0_70_589
*5584 FILLER_0_70_601
*5585 FILLER_0_70_613
*5586 FILLER_0_70_65
*5587 FILLER_0_70_77
*5588 FILLER_0_70_83
*5589 FILLER_0_70_85
*5590 FILLER_0_70_97
*5591 FILLER_0_71_105
*5592 FILLER_0_71_111
*5593 FILLER_0_71_113
*5594 FILLER_0_71_125
*5595 FILLER_0_71_137
*5596 FILLER_0_71_149
*5597 FILLER_0_71_15
*5598 FILLER_0_71_161
*5599 FILLER_0_71_167
*5600 FILLER_0_71_169
*5601 FILLER_0_71_181
*5602 FILLER_0_71_193
*5603 FILLER_0_71_205
*5604 FILLER_0_71_217
*5605 FILLER_0_71_223
*5606 FILLER_0_71_225
*5607 FILLER_0_71_237
*5608 FILLER_0_71_249
*5609 FILLER_0_71_261
*5610 FILLER_0_71_27
*5611 FILLER_0_71_273
*5612 FILLER_0_71_279
*5613 FILLER_0_71_281
*5614 FILLER_0_71_293
*5615 FILLER_0_71_3
*5616 FILLER_0_71_305
*5617 FILLER_0_71_317
*5618 FILLER_0_71_329
*5619 FILLER_0_71_335
*5620 FILLER_0_71_337
*5621 FILLER_0_71_349
*5622 FILLER_0_71_361
*5623 FILLER_0_71_373
*5624 FILLER_0_71_385
*5625 FILLER_0_71_39
*5626 FILLER_0_71_391
*5627 FILLER_0_71_393
*5628 FILLER_0_71_405
*5629 FILLER_0_71_417
*5630 FILLER_0_71_429
*5631 FILLER_0_71_441
*5632 FILLER_0_71_447
*5633 FILLER_0_71_449
*5634 FILLER_0_71_461
*5635 FILLER_0_71_473
*5636 FILLER_0_71_485
*5637 FILLER_0_71_497
*5638 FILLER_0_71_503
*5639 FILLER_0_71_505
*5640 FILLER_0_71_51
*5641 FILLER_0_71_517
*5642 FILLER_0_71_529
*5643 FILLER_0_71_541
*5644 FILLER_0_71_55
*5645 FILLER_0_71_553
*5646 FILLER_0_71_559
*5647 FILLER_0_71_561
*5648 FILLER_0_71_57
*5649 FILLER_0_71_573
*5650 FILLER_0_71_585
*5651 FILLER_0_71_597
*5652 FILLER_0_71_609
*5653 FILLER_0_71_615
*5654 FILLER_0_71_617
*5655 FILLER_0_71_69
*5656 FILLER_0_71_81
*5657 FILLER_0_71_93
*5658 FILLER_0_72_109
*5659 FILLER_0_72_121
*5660 FILLER_0_72_133
*5661 FILLER_0_72_139
*5662 FILLER_0_72_141
*5663 FILLER_0_72_15
*5664 FILLER_0_72_153
*5665 FILLER_0_72_165
*5666 FILLER_0_72_177
*5667 FILLER_0_72_189
*5668 FILLER_0_72_195
*5669 FILLER_0_72_197
*5670 FILLER_0_72_209
*5671 FILLER_0_72_221
*5672 FILLER_0_72_233
*5673 FILLER_0_72_245
*5674 FILLER_0_72_251
*5675 FILLER_0_72_253
*5676 FILLER_0_72_265
*5677 FILLER_0_72_27
*5678 FILLER_0_72_277
*5679 FILLER_0_72_289
*5680 FILLER_0_72_29
*5681 FILLER_0_72_3
*5682 FILLER_0_72_301
*5683 FILLER_0_72_307
*5684 FILLER_0_72_309
*5685 FILLER_0_72_321
*5686 FILLER_0_72_333
*5687 FILLER_0_72_345
*5688 FILLER_0_72_357
*5689 FILLER_0_72_363
*5690 FILLER_0_72_365
*5691 FILLER_0_72_377
*5692 FILLER_0_72_389
*5693 FILLER_0_72_401
*5694 FILLER_0_72_41
*5695 FILLER_0_72_413
*5696 FILLER_0_72_419
*5697 FILLER_0_72_421
*5698 FILLER_0_72_433
*5699 FILLER_0_72_445
*5700 FILLER_0_72_457
*5701 FILLER_0_72_469
*5702 FILLER_0_72_475
*5703 FILLER_0_72_477
*5704 FILLER_0_72_489
*5705 FILLER_0_72_501
*5706 FILLER_0_72_513
*5707 FILLER_0_72_525
*5708 FILLER_0_72_53
*5709 FILLER_0_72_531
*5710 FILLER_0_72_533
*5711 FILLER_0_72_545
*5712 FILLER_0_72_557
*5713 FILLER_0_72_569
*5714 FILLER_0_72_581
*5715 FILLER_0_72_587
*5716 FILLER_0_72_589
*5717 FILLER_0_72_601
*5718 FILLER_0_72_613
*5719 FILLER_0_72_65
*5720 FILLER_0_72_77
*5721 FILLER_0_72_83
*5722 FILLER_0_72_85
*5723 FILLER_0_72_97
*5724 FILLER_0_73_105
*5725 FILLER_0_73_111
*5726 FILLER_0_73_113
*5727 FILLER_0_73_125
*5728 FILLER_0_73_137
*5729 FILLER_0_73_149
*5730 FILLER_0_73_15
*5731 FILLER_0_73_161
*5732 FILLER_0_73_167
*5733 FILLER_0_73_169
*5734 FILLER_0_73_181
*5735 FILLER_0_73_193
*5736 FILLER_0_73_205
*5737 FILLER_0_73_217
*5738 FILLER_0_73_223
*5739 FILLER_0_73_225
*5740 FILLER_0_73_237
*5741 FILLER_0_73_249
*5742 FILLER_0_73_261
*5743 FILLER_0_73_27
*5744 FILLER_0_73_273
*5745 FILLER_0_73_279
*5746 FILLER_0_73_281
*5747 FILLER_0_73_293
*5748 FILLER_0_73_3
*5749 FILLER_0_73_305
*5750 FILLER_0_73_317
*5751 FILLER_0_73_329
*5752 FILLER_0_73_335
*5753 FILLER_0_73_337
*5754 FILLER_0_73_349
*5755 FILLER_0_73_361
*5756 FILLER_0_73_373
*5757 FILLER_0_73_385
*5758 FILLER_0_73_39
*5759 FILLER_0_73_391
*5760 FILLER_0_73_393
*5761 FILLER_0_73_405
*5762 FILLER_0_73_417
*5763 FILLER_0_73_429
*5764 FILLER_0_73_441
*5765 FILLER_0_73_447
*5766 FILLER_0_73_449
*5767 FILLER_0_73_461
*5768 FILLER_0_73_473
*5769 FILLER_0_73_485
*5770 FILLER_0_73_497
*5771 FILLER_0_73_503
*5772 FILLER_0_73_505
*5773 FILLER_0_73_51
*5774 FILLER_0_73_517
*5775 FILLER_0_73_529
*5776 FILLER_0_73_541
*5777 FILLER_0_73_55
*5778 FILLER_0_73_553
*5779 FILLER_0_73_559
*5780 FILLER_0_73_561
*5781 FILLER_0_73_57
*5782 FILLER_0_73_573
*5783 FILLER_0_73_585
*5784 FILLER_0_73_597
*5785 FILLER_0_73_609
*5786 FILLER_0_73_615
*5787 FILLER_0_73_617
*5788 FILLER_0_73_69
*5789 FILLER_0_73_81
*5790 FILLER_0_73_93
*5791 FILLER_0_74_109
*5792 FILLER_0_74_121
*5793 FILLER_0_74_133
*5794 FILLER_0_74_139
*5795 FILLER_0_74_141
*5796 FILLER_0_74_153
*5797 FILLER_0_74_165
*5798 FILLER_0_74_177
*5799 FILLER_0_74_189
*5800 FILLER_0_74_195
*5801 FILLER_0_74_197
*5802 FILLER_0_74_209
*5803 FILLER_0_74_21
*5804 FILLER_0_74_221
*5805 FILLER_0_74_233
*5806 FILLER_0_74_245
*5807 FILLER_0_74_251
*5808 FILLER_0_74_253
*5809 FILLER_0_74_265
*5810 FILLER_0_74_27
*5811 FILLER_0_74_277
*5812 FILLER_0_74_289
*5813 FILLER_0_74_29
*5814 FILLER_0_74_301
*5815 FILLER_0_74_307
*5816 FILLER_0_74_309
*5817 FILLER_0_74_321
*5818 FILLER_0_74_333
*5819 FILLER_0_74_345
*5820 FILLER_0_74_357
*5821 FILLER_0_74_363
*5822 FILLER_0_74_365
*5823 FILLER_0_74_377
*5824 FILLER_0_74_389
*5825 FILLER_0_74_401
*5826 FILLER_0_74_41
*5827 FILLER_0_74_413
*5828 FILLER_0_74_419
*5829 FILLER_0_74_421
*5830 FILLER_0_74_433
*5831 FILLER_0_74_445
*5832 FILLER_0_74_457
*5833 FILLER_0_74_469
*5834 FILLER_0_74_475
*5835 FILLER_0_74_477
*5836 FILLER_0_74_489
*5837 FILLER_0_74_501
*5838 FILLER_0_74_513
*5839 FILLER_0_74_525
*5840 FILLER_0_74_53
*5841 FILLER_0_74_531
*5842 FILLER_0_74_533
*5843 FILLER_0_74_545
*5844 FILLER_0_74_557
*5845 FILLER_0_74_569
*5846 FILLER_0_74_581
*5847 FILLER_0_74_587
*5848 FILLER_0_74_589
*5849 FILLER_0_74_601
*5850 FILLER_0_74_613
*5851 FILLER_0_74_65
*5852 FILLER_0_74_77
*5853 FILLER_0_74_83
*5854 FILLER_0_74_85
*5855 FILLER_0_74_9
*5856 FILLER_0_74_97
*5857 FILLER_0_75_105
*5858 FILLER_0_75_111
*5859 FILLER_0_75_113
*5860 FILLER_0_75_125
*5861 FILLER_0_75_137
*5862 FILLER_0_75_149
*5863 FILLER_0_75_15
*5864 FILLER_0_75_161
*5865 FILLER_0_75_167
*5866 FILLER_0_75_169
*5867 FILLER_0_75_181
*5868 FILLER_0_75_193
*5869 FILLER_0_75_205
*5870 FILLER_0_75_217
*5871 FILLER_0_75_223
*5872 FILLER_0_75_225
*5873 FILLER_0_75_237
*5874 FILLER_0_75_249
*5875 FILLER_0_75_261
*5876 FILLER_0_75_27
*5877 FILLER_0_75_273
*5878 FILLER_0_75_279
*5879 FILLER_0_75_281
*5880 FILLER_0_75_293
*5881 FILLER_0_75_3
*5882 FILLER_0_75_305
*5883 FILLER_0_75_317
*5884 FILLER_0_75_329
*5885 FILLER_0_75_335
*5886 FILLER_0_75_337
*5887 FILLER_0_75_349
*5888 FILLER_0_75_361
*5889 FILLER_0_75_373
*5890 FILLER_0_75_385
*5891 FILLER_0_75_39
*5892 FILLER_0_75_391
*5893 FILLER_0_75_393
*5894 FILLER_0_75_405
*5895 FILLER_0_75_417
*5896 FILLER_0_75_429
*5897 FILLER_0_75_441
*5898 FILLER_0_75_447
*5899 FILLER_0_75_449
*5900 FILLER_0_75_461
*5901 FILLER_0_75_473
*5902 FILLER_0_75_485
*5903 FILLER_0_75_497
*5904 FILLER_0_75_503
*5905 FILLER_0_75_505
*5906 FILLER_0_75_51
*5907 FILLER_0_75_517
*5908 FILLER_0_75_529
*5909 FILLER_0_75_541
*5910 FILLER_0_75_55
*5911 FILLER_0_75_553
*5912 FILLER_0_75_559
*5913 FILLER_0_75_561
*5914 FILLER_0_75_57
*5915 FILLER_0_75_573
*5916 FILLER_0_75_585
*5917 FILLER_0_75_597
*5918 FILLER_0_75_609
*5919 FILLER_0_75_615
*5920 FILLER_0_75_617
*5921 FILLER_0_75_69
*5922 FILLER_0_75_81
*5923 FILLER_0_75_93
*5924 FILLER_0_76_109
*5925 FILLER_0_76_121
*5926 FILLER_0_76_133
*5927 FILLER_0_76_139
*5928 FILLER_0_76_141
*5929 FILLER_0_76_15
*5930 FILLER_0_76_153
*5931 FILLER_0_76_165
*5932 FILLER_0_76_177
*5933 FILLER_0_76_189
*5934 FILLER_0_76_195
*5935 FILLER_0_76_197
*5936 FILLER_0_76_209
*5937 FILLER_0_76_221
*5938 FILLER_0_76_233
*5939 FILLER_0_76_245
*5940 FILLER_0_76_251
*5941 FILLER_0_76_253
*5942 FILLER_0_76_265
*5943 FILLER_0_76_27
*5944 FILLER_0_76_277
*5945 FILLER_0_76_289
*5946 FILLER_0_76_29
*5947 FILLER_0_76_3
*5948 FILLER_0_76_301
*5949 FILLER_0_76_307
*5950 FILLER_0_76_309
*5951 FILLER_0_76_321
*5952 FILLER_0_76_333
*5953 FILLER_0_76_345
*5954 FILLER_0_76_357
*5955 FILLER_0_76_363
*5956 FILLER_0_76_365
*5957 FILLER_0_76_377
*5958 FILLER_0_76_389
*5959 FILLER_0_76_401
*5960 FILLER_0_76_41
*5961 FILLER_0_76_413
*5962 FILLER_0_76_419
*5963 FILLER_0_76_421
*5964 FILLER_0_76_433
*5965 FILLER_0_76_445
*5966 FILLER_0_76_457
*5967 FILLER_0_76_469
*5968 FILLER_0_76_475
*5969 FILLER_0_76_477
*5970 FILLER_0_76_489
*5971 FILLER_0_76_501
*5972 FILLER_0_76_513
*5973 FILLER_0_76_525
*5974 FILLER_0_76_53
*5975 FILLER_0_76_531
*5976 FILLER_0_76_533
*5977 FILLER_0_76_545
*5978 FILLER_0_76_557
*5979 FILLER_0_76_569
*5980 FILLER_0_76_581
*5981 FILLER_0_76_587
*5982 FILLER_0_76_589
*5983 FILLER_0_76_601
*5984 FILLER_0_76_613
*5985 FILLER_0_76_65
*5986 FILLER_0_76_77
*5987 FILLER_0_76_83
*5988 FILLER_0_76_85
*5989 FILLER_0_76_97
*5990 FILLER_0_77_105
*5991 FILLER_0_77_111
*5992 FILLER_0_77_113
*5993 FILLER_0_77_125
*5994 FILLER_0_77_137
*5995 FILLER_0_77_149
*5996 FILLER_0_77_15
*5997 FILLER_0_77_161
*5998 FILLER_0_77_167
*5999 FILLER_0_77_169
*6000 FILLER_0_77_181
*6001 FILLER_0_77_193
*6002 FILLER_0_77_205
*6003 FILLER_0_77_217
*6004 FILLER_0_77_223
*6005 FILLER_0_77_225
*6006 FILLER_0_77_237
*6007 FILLER_0_77_249
*6008 FILLER_0_77_261
*6009 FILLER_0_77_27
*6010 FILLER_0_77_273
*6011 FILLER_0_77_279
*6012 FILLER_0_77_281
*6013 FILLER_0_77_293
*6014 FILLER_0_77_3
*6015 FILLER_0_77_305
*6016 FILLER_0_77_317
*6017 FILLER_0_77_329
*6018 FILLER_0_77_335
*6019 FILLER_0_77_337
*6020 FILLER_0_77_349
*6021 FILLER_0_77_361
*6022 FILLER_0_77_373
*6023 FILLER_0_77_385
*6024 FILLER_0_77_39
*6025 FILLER_0_77_391
*6026 FILLER_0_77_393
*6027 FILLER_0_77_405
*6028 FILLER_0_77_417
*6029 FILLER_0_77_429
*6030 FILLER_0_77_441
*6031 FILLER_0_77_447
*6032 FILLER_0_77_449
*6033 FILLER_0_77_461
*6034 FILLER_0_77_473
*6035 FILLER_0_77_485
*6036 FILLER_0_77_497
*6037 FILLER_0_77_503
*6038 FILLER_0_77_505
*6039 FILLER_0_77_51
*6040 FILLER_0_77_517
*6041 FILLER_0_77_529
*6042 FILLER_0_77_541
*6043 FILLER_0_77_55
*6044 FILLER_0_77_553
*6045 FILLER_0_77_559
*6046 FILLER_0_77_561
*6047 FILLER_0_77_57
*6048 FILLER_0_77_573
*6049 FILLER_0_77_585
*6050 FILLER_0_77_597
*6051 FILLER_0_77_609
*6052 FILLER_0_77_615
*6053 FILLER_0_77_617
*6054 FILLER_0_77_69
*6055 FILLER_0_77_81
*6056 FILLER_0_77_93
*6057 FILLER_0_78_109
*6058 FILLER_0_78_121
*6059 FILLER_0_78_133
*6060 FILLER_0_78_139
*6061 FILLER_0_78_141
*6062 FILLER_0_78_15
*6063 FILLER_0_78_153
*6064 FILLER_0_78_165
*6065 FILLER_0_78_177
*6066 FILLER_0_78_189
*6067 FILLER_0_78_195
*6068 FILLER_0_78_197
*6069 FILLER_0_78_209
*6070 FILLER_0_78_221
*6071 FILLER_0_78_233
*6072 FILLER_0_78_245
*6073 FILLER_0_78_251
*6074 FILLER_0_78_253
*6075 FILLER_0_78_265
*6076 FILLER_0_78_27
*6077 FILLER_0_78_277
*6078 FILLER_0_78_289
*6079 FILLER_0_78_29
*6080 FILLER_0_78_3
*6081 FILLER_0_78_301
*6082 FILLER_0_78_307
*6083 FILLER_0_78_309
*6084 FILLER_0_78_321
*6085 FILLER_0_78_333
*6086 FILLER_0_78_345
*6087 FILLER_0_78_357
*6088 FILLER_0_78_363
*6089 FILLER_0_78_365
*6090 FILLER_0_78_377
*6091 FILLER_0_78_389
*6092 FILLER_0_78_401
*6093 FILLER_0_78_41
*6094 FILLER_0_78_413
*6095 FILLER_0_78_419
*6096 FILLER_0_78_421
*6097 FILLER_0_78_433
*6098 FILLER_0_78_445
*6099 FILLER_0_78_457
*6100 FILLER_0_78_469
*6101 FILLER_0_78_475
*6102 FILLER_0_78_477
*6103 FILLER_0_78_489
*6104 FILLER_0_78_501
*6105 FILLER_0_78_513
*6106 FILLER_0_78_525
*6107 FILLER_0_78_53
*6108 FILLER_0_78_531
*6109 FILLER_0_78_533
*6110 FILLER_0_78_545
*6111 FILLER_0_78_557
*6112 FILLER_0_78_569
*6113 FILLER_0_78_581
*6114 FILLER_0_78_587
*6115 FILLER_0_78_589
*6116 FILLER_0_78_601
*6117 FILLER_0_78_613
*6118 FILLER_0_78_65
*6119 FILLER_0_78_77
*6120 FILLER_0_78_83
*6121 FILLER_0_78_85
*6122 FILLER_0_78_97
*6123 FILLER_0_79_105
*6124 FILLER_0_79_111
*6125 FILLER_0_79_113
*6126 FILLER_0_79_125
*6127 FILLER_0_79_137
*6128 FILLER_0_79_149
*6129 FILLER_0_79_15
*6130 FILLER_0_79_161
*6131 FILLER_0_79_167
*6132 FILLER_0_79_169
*6133 FILLER_0_79_181
*6134 FILLER_0_79_193
*6135 FILLER_0_79_205
*6136 FILLER_0_79_217
*6137 FILLER_0_79_223
*6138 FILLER_0_79_225
*6139 FILLER_0_79_237
*6140 FILLER_0_79_249
*6141 FILLER_0_79_261
*6142 FILLER_0_79_27
*6143 FILLER_0_79_273
*6144 FILLER_0_79_279
*6145 FILLER_0_79_281
*6146 FILLER_0_79_293
*6147 FILLER_0_79_3
*6148 FILLER_0_79_305
*6149 FILLER_0_79_317
*6150 FILLER_0_79_329
*6151 FILLER_0_79_335
*6152 FILLER_0_79_337
*6153 FILLER_0_79_349
*6154 FILLER_0_79_361
*6155 FILLER_0_79_373
*6156 FILLER_0_79_385
*6157 FILLER_0_79_39
*6158 FILLER_0_79_391
*6159 FILLER_0_79_393
*6160 FILLER_0_79_405
*6161 FILLER_0_79_417
*6162 FILLER_0_79_429
*6163 FILLER_0_79_441
*6164 FILLER_0_79_447
*6165 FILLER_0_79_449
*6166 FILLER_0_79_461
*6167 FILLER_0_79_473
*6168 FILLER_0_79_485
*6169 FILLER_0_79_497
*6170 FILLER_0_79_503
*6171 FILLER_0_79_505
*6172 FILLER_0_79_51
*6173 FILLER_0_79_517
*6174 FILLER_0_79_529
*6175 FILLER_0_79_541
*6176 FILLER_0_79_55
*6177 FILLER_0_79_553
*6178 FILLER_0_79_559
*6179 FILLER_0_79_561
*6180 FILLER_0_79_57
*6181 FILLER_0_79_573
*6182 FILLER_0_79_585
*6183 FILLER_0_79_597
*6184 FILLER_0_79_609
*6185 FILLER_0_79_615
*6186 FILLER_0_79_617
*6187 FILLER_0_79_69
*6188 FILLER_0_79_81
*6189 FILLER_0_79_93
*6190 FILLER_0_7_105
*6191 FILLER_0_7_111
*6192 FILLER_0_7_113
*6193 FILLER_0_7_125
*6194 FILLER_0_7_137
*6195 FILLER_0_7_149
*6196 FILLER_0_7_15
*6197 FILLER_0_7_161
*6198 FILLER_0_7_167
*6199 FILLER_0_7_169
*6200 FILLER_0_7_181
*6201 FILLER_0_7_193
*6202 FILLER_0_7_205
*6203 FILLER_0_7_217
*6204 FILLER_0_7_223
*6205 FILLER_0_7_225
*6206 FILLER_0_7_237
*6207 FILLER_0_7_249
*6208 FILLER_0_7_261
*6209 FILLER_0_7_27
*6210 FILLER_0_7_273
*6211 FILLER_0_7_279
*6212 FILLER_0_7_281
*6213 FILLER_0_7_293
*6214 FILLER_0_7_3
*6215 FILLER_0_7_305
*6216 FILLER_0_7_317
*6217 FILLER_0_7_329
*6218 FILLER_0_7_335
*6219 FILLER_0_7_337
*6220 FILLER_0_7_349
*6221 FILLER_0_7_361
*6222 FILLER_0_7_373
*6223 FILLER_0_7_385
*6224 FILLER_0_7_39
*6225 FILLER_0_7_391
*6226 FILLER_0_7_393
*6227 FILLER_0_7_401
*6228 FILLER_0_7_414
*6229 FILLER_0_7_418
*6230 FILLER_0_7_430
*6231 FILLER_0_7_442
*6232 FILLER_0_7_449
*6233 FILLER_0_7_461
*6234 FILLER_0_7_473
*6235 FILLER_0_7_485
*6236 FILLER_0_7_497
*6237 FILLER_0_7_503
*6238 FILLER_0_7_505
*6239 FILLER_0_7_51
*6240 FILLER_0_7_517
*6241 FILLER_0_7_529
*6242 FILLER_0_7_541
*6243 FILLER_0_7_55
*6244 FILLER_0_7_553
*6245 FILLER_0_7_559
*6246 FILLER_0_7_561
*6247 FILLER_0_7_57
*6248 FILLER_0_7_573
*6249 FILLER_0_7_585
*6250 FILLER_0_7_597
*6251 FILLER_0_7_609
*6252 FILLER_0_7_615
*6253 FILLER_0_7_617
*6254 FILLER_0_7_69
*6255 FILLER_0_7_81
*6256 FILLER_0_7_93
*6257 FILLER_0_80_109
*6258 FILLER_0_80_121
*6259 FILLER_0_80_133
*6260 FILLER_0_80_139
*6261 FILLER_0_80_141
*6262 FILLER_0_80_15
*6263 FILLER_0_80_153
*6264 FILLER_0_80_165
*6265 FILLER_0_80_177
*6266 FILLER_0_80_189
*6267 FILLER_0_80_195
*6268 FILLER_0_80_197
*6269 FILLER_0_80_209
*6270 FILLER_0_80_221
*6271 FILLER_0_80_233
*6272 FILLER_0_80_245
*6273 FILLER_0_80_251
*6274 FILLER_0_80_253
*6275 FILLER_0_80_265
*6276 FILLER_0_80_27
*6277 FILLER_0_80_277
*6278 FILLER_0_80_289
*6279 FILLER_0_80_29
*6280 FILLER_0_80_3
*6281 FILLER_0_80_301
*6282 FILLER_0_80_307
*6283 FILLER_0_80_309
*6284 FILLER_0_80_321
*6285 FILLER_0_80_333
*6286 FILLER_0_80_345
*6287 FILLER_0_80_357
*6288 FILLER_0_80_363
*6289 FILLER_0_80_365
*6290 FILLER_0_80_377
*6291 FILLER_0_80_389
*6292 FILLER_0_80_401
*6293 FILLER_0_80_41
*6294 FILLER_0_80_413
*6295 FILLER_0_80_419
*6296 FILLER_0_80_421
*6297 FILLER_0_80_433
*6298 FILLER_0_80_445
*6299 FILLER_0_80_457
*6300 FILLER_0_80_469
*6301 FILLER_0_80_475
*6302 FILLER_0_80_477
*6303 FILLER_0_80_489
*6304 FILLER_0_80_501
*6305 FILLER_0_80_513
*6306 FILLER_0_80_525
*6307 FILLER_0_80_53
*6308 FILLER_0_80_531
*6309 FILLER_0_80_533
*6310 FILLER_0_80_545
*6311 FILLER_0_80_557
*6312 FILLER_0_80_569
*6313 FILLER_0_80_581
*6314 FILLER_0_80_587
*6315 FILLER_0_80_589
*6316 FILLER_0_80_601
*6317 FILLER_0_80_613
*6318 FILLER_0_80_65
*6319 FILLER_0_80_77
*6320 FILLER_0_80_83
*6321 FILLER_0_80_85
*6322 FILLER_0_80_97
*6323 FILLER_0_81_105
*6324 FILLER_0_81_111
*6325 FILLER_0_81_113
*6326 FILLER_0_81_125
*6327 FILLER_0_81_137
*6328 FILLER_0_81_149
*6329 FILLER_0_81_15
*6330 FILLER_0_81_161
*6331 FILLER_0_81_167
*6332 FILLER_0_81_169
*6333 FILLER_0_81_181
*6334 FILLER_0_81_193
*6335 FILLER_0_81_205
*6336 FILLER_0_81_217
*6337 FILLER_0_81_223
*6338 FILLER_0_81_225
*6339 FILLER_0_81_237
*6340 FILLER_0_81_249
*6341 FILLER_0_81_261
*6342 FILLER_0_81_27
*6343 FILLER_0_81_273
*6344 FILLER_0_81_279
*6345 FILLER_0_81_281
*6346 FILLER_0_81_293
*6347 FILLER_0_81_3
*6348 FILLER_0_81_305
*6349 FILLER_0_81_317
*6350 FILLER_0_81_329
*6351 FILLER_0_81_335
*6352 FILLER_0_81_337
*6353 FILLER_0_81_349
*6354 FILLER_0_81_361
*6355 FILLER_0_81_373
*6356 FILLER_0_81_385
*6357 FILLER_0_81_39
*6358 FILLER_0_81_391
*6359 FILLER_0_81_393
*6360 FILLER_0_81_405
*6361 FILLER_0_81_417
*6362 FILLER_0_81_429
*6363 FILLER_0_81_441
*6364 FILLER_0_81_447
*6365 FILLER_0_81_449
*6366 FILLER_0_81_461
*6367 FILLER_0_81_473
*6368 FILLER_0_81_485
*6369 FILLER_0_81_497
*6370 FILLER_0_81_503
*6371 FILLER_0_81_505
*6372 FILLER_0_81_51
*6373 FILLER_0_81_517
*6374 FILLER_0_81_529
*6375 FILLER_0_81_541
*6376 FILLER_0_81_55
*6377 FILLER_0_81_553
*6378 FILLER_0_81_559
*6379 FILLER_0_81_561
*6380 FILLER_0_81_57
*6381 FILLER_0_81_573
*6382 FILLER_0_81_585
*6383 FILLER_0_81_597
*6384 FILLER_0_81_609
*6385 FILLER_0_81_615
*6386 FILLER_0_81_617
*6387 FILLER_0_81_69
*6388 FILLER_0_81_81
*6389 FILLER_0_81_93
*6390 FILLER_0_82_109
*6391 FILLER_0_82_121
*6392 FILLER_0_82_133
*6393 FILLER_0_82_139
*6394 FILLER_0_82_141
*6395 FILLER_0_82_15
*6396 FILLER_0_82_153
*6397 FILLER_0_82_165
*6398 FILLER_0_82_177
*6399 FILLER_0_82_189
*6400 FILLER_0_82_195
*6401 FILLER_0_82_197
*6402 FILLER_0_82_209
*6403 FILLER_0_82_221
*6404 FILLER_0_82_233
*6405 FILLER_0_82_245
*6406 FILLER_0_82_251
*6407 FILLER_0_82_253
*6408 FILLER_0_82_265
*6409 FILLER_0_82_27
*6410 FILLER_0_82_277
*6411 FILLER_0_82_289
*6412 FILLER_0_82_29
*6413 FILLER_0_82_3
*6414 FILLER_0_82_301
*6415 FILLER_0_82_307
*6416 FILLER_0_82_309
*6417 FILLER_0_82_321
*6418 FILLER_0_82_333
*6419 FILLER_0_82_345
*6420 FILLER_0_82_357
*6421 FILLER_0_82_363
*6422 FILLER_0_82_365
*6423 FILLER_0_82_377
*6424 FILLER_0_82_389
*6425 FILLER_0_82_401
*6426 FILLER_0_82_41
*6427 FILLER_0_82_413
*6428 FILLER_0_82_419
*6429 FILLER_0_82_421
*6430 FILLER_0_82_433
*6431 FILLER_0_82_445
*6432 FILLER_0_82_457
*6433 FILLER_0_82_469
*6434 FILLER_0_82_475
*6435 FILLER_0_82_477
*6436 FILLER_0_82_489
*6437 FILLER_0_82_501
*6438 FILLER_0_82_513
*6439 FILLER_0_82_525
*6440 FILLER_0_82_53
*6441 FILLER_0_82_531
*6442 FILLER_0_82_533
*6443 FILLER_0_82_545
*6444 FILLER_0_82_557
*6445 FILLER_0_82_569
*6446 FILLER_0_82_581
*6447 FILLER_0_82_587
*6448 FILLER_0_82_589
*6449 FILLER_0_82_601
*6450 FILLER_0_82_613
*6451 FILLER_0_82_65
*6452 FILLER_0_82_77
*6453 FILLER_0_82_83
*6454 FILLER_0_82_85
*6455 FILLER_0_82_97
*6456 FILLER_0_83_105
*6457 FILLER_0_83_111
*6458 FILLER_0_83_113
*6459 FILLER_0_83_125
*6460 FILLER_0_83_137
*6461 FILLER_0_83_149
*6462 FILLER_0_83_15
*6463 FILLER_0_83_161
*6464 FILLER_0_83_167
*6465 FILLER_0_83_169
*6466 FILLER_0_83_181
*6467 FILLER_0_83_193
*6468 FILLER_0_83_205
*6469 FILLER_0_83_217
*6470 FILLER_0_83_223
*6471 FILLER_0_83_225
*6472 FILLER_0_83_237
*6473 FILLER_0_83_249
*6474 FILLER_0_83_261
*6475 FILLER_0_83_27
*6476 FILLER_0_83_273
*6477 FILLER_0_83_279
*6478 FILLER_0_83_281
*6479 FILLER_0_83_293
*6480 FILLER_0_83_3
*6481 FILLER_0_83_305
*6482 FILLER_0_83_317
*6483 FILLER_0_83_329
*6484 FILLER_0_83_335
*6485 FILLER_0_83_337
*6486 FILLER_0_83_349
*6487 FILLER_0_83_361
*6488 FILLER_0_83_373
*6489 FILLER_0_83_385
*6490 FILLER_0_83_39
*6491 FILLER_0_83_391
*6492 FILLER_0_83_393
*6493 FILLER_0_83_405
*6494 FILLER_0_83_417
*6495 FILLER_0_83_429
*6496 FILLER_0_83_441
*6497 FILLER_0_83_447
*6498 FILLER_0_83_449
*6499 FILLER_0_83_461
*6500 FILLER_0_83_473
*6501 FILLER_0_83_485
*6502 FILLER_0_83_497
*6503 FILLER_0_83_503
*6504 FILLER_0_83_505
*6505 FILLER_0_83_51
*6506 FILLER_0_83_517
*6507 FILLER_0_83_529
*6508 FILLER_0_83_541
*6509 FILLER_0_83_55
*6510 FILLER_0_83_553
*6511 FILLER_0_83_559
*6512 FILLER_0_83_561
*6513 FILLER_0_83_57
*6514 FILLER_0_83_573
*6515 FILLER_0_83_585
*6516 FILLER_0_83_597
*6517 FILLER_0_83_609
*6518 FILLER_0_83_615
*6519 FILLER_0_83_617
*6520 FILLER_0_83_69
*6521 FILLER_0_83_81
*6522 FILLER_0_83_93
*6523 FILLER_0_84_109
*6524 FILLER_0_84_121
*6525 FILLER_0_84_133
*6526 FILLER_0_84_139
*6527 FILLER_0_84_141
*6528 FILLER_0_84_153
*6529 FILLER_0_84_165
*6530 FILLER_0_84_177
*6531 FILLER_0_84_18
*6532 FILLER_0_84_189
*6533 FILLER_0_84_195
*6534 FILLER_0_84_197
*6535 FILLER_0_84_209
*6536 FILLER_0_84_221
*6537 FILLER_0_84_233
*6538 FILLER_0_84_245
*6539 FILLER_0_84_251
*6540 FILLER_0_84_253
*6541 FILLER_0_84_26
*6542 FILLER_0_84_265
*6543 FILLER_0_84_277
*6544 FILLER_0_84_289
*6545 FILLER_0_84_29
*6546 FILLER_0_84_301
*6547 FILLER_0_84_307
*6548 FILLER_0_84_309
*6549 FILLER_0_84_321
*6550 FILLER_0_84_333
*6551 FILLER_0_84_345
*6552 FILLER_0_84_357
*6553 FILLER_0_84_363
*6554 FILLER_0_84_365
*6555 FILLER_0_84_377
*6556 FILLER_0_84_389
*6557 FILLER_0_84_401
*6558 FILLER_0_84_41
*6559 FILLER_0_84_413
*6560 FILLER_0_84_419
*6561 FILLER_0_84_421
*6562 FILLER_0_84_433
*6563 FILLER_0_84_445
*6564 FILLER_0_84_457
*6565 FILLER_0_84_469
*6566 FILLER_0_84_475
*6567 FILLER_0_84_477
*6568 FILLER_0_84_489
*6569 FILLER_0_84_501
*6570 FILLER_0_84_513
*6571 FILLER_0_84_525
*6572 FILLER_0_84_53
*6573 FILLER_0_84_531
*6574 FILLER_0_84_533
*6575 FILLER_0_84_545
*6576 FILLER_0_84_557
*6577 FILLER_0_84_569
*6578 FILLER_0_84_581
*6579 FILLER_0_84_587
*6580 FILLER_0_84_589
*6581 FILLER_0_84_6
*6582 FILLER_0_84_601
*6583 FILLER_0_84_613
*6584 FILLER_0_84_65
*6585 FILLER_0_84_77
*6586 FILLER_0_84_83
*6587 FILLER_0_84_85
*6588 FILLER_0_84_97
*6589 FILLER_0_85_105
*6590 FILLER_0_85_111
*6591 FILLER_0_85_113
*6592 FILLER_0_85_125
*6593 FILLER_0_85_137
*6594 FILLER_0_85_149
*6595 FILLER_0_85_15
*6596 FILLER_0_85_161
*6597 FILLER_0_85_167
*6598 FILLER_0_85_169
*6599 FILLER_0_85_181
*6600 FILLER_0_85_193
*6601 FILLER_0_85_205
*6602 FILLER_0_85_217
*6603 FILLER_0_85_223
*6604 FILLER_0_85_225
*6605 FILLER_0_85_237
*6606 FILLER_0_85_249
*6607 FILLER_0_85_261
*6608 FILLER_0_85_27
*6609 FILLER_0_85_273
*6610 FILLER_0_85_279
*6611 FILLER_0_85_281
*6612 FILLER_0_85_293
*6613 FILLER_0_85_3
*6614 FILLER_0_85_305
*6615 FILLER_0_85_317
*6616 FILLER_0_85_329
*6617 FILLER_0_85_335
*6618 FILLER_0_85_337
*6619 FILLER_0_85_349
*6620 FILLER_0_85_361
*6621 FILLER_0_85_373
*6622 FILLER_0_85_385
*6623 FILLER_0_85_39
*6624 FILLER_0_85_391
*6625 FILLER_0_85_393
*6626 FILLER_0_85_405
*6627 FILLER_0_85_417
*6628 FILLER_0_85_429
*6629 FILLER_0_85_441
*6630 FILLER_0_85_447
*6631 FILLER_0_85_449
*6632 FILLER_0_85_461
*6633 FILLER_0_85_473
*6634 FILLER_0_85_485
*6635 FILLER_0_85_497
*6636 FILLER_0_85_503
*6637 FILLER_0_85_505
*6638 FILLER_0_85_51
*6639 FILLER_0_85_517
*6640 FILLER_0_85_529
*6641 FILLER_0_85_541
*6642 FILLER_0_85_55
*6643 FILLER_0_85_553
*6644 FILLER_0_85_559
*6645 FILLER_0_85_561
*6646 FILLER_0_85_57
*6647 FILLER_0_85_573
*6648 FILLER_0_85_585
*6649 FILLER_0_85_597
*6650 FILLER_0_85_609
*6651 FILLER_0_85_615
*6652 FILLER_0_85_617
*6653 FILLER_0_85_69
*6654 FILLER_0_85_81
*6655 FILLER_0_85_93
*6656 FILLER_0_86_109
*6657 FILLER_0_86_121
*6658 FILLER_0_86_133
*6659 FILLER_0_86_139
*6660 FILLER_0_86_141
*6661 FILLER_0_86_15
*6662 FILLER_0_86_153
*6663 FILLER_0_86_165
*6664 FILLER_0_86_177
*6665 FILLER_0_86_189
*6666 FILLER_0_86_195
*6667 FILLER_0_86_197
*6668 FILLER_0_86_209
*6669 FILLER_0_86_221
*6670 FILLER_0_86_233
*6671 FILLER_0_86_245
*6672 FILLER_0_86_251
*6673 FILLER_0_86_253
*6674 FILLER_0_86_265
*6675 FILLER_0_86_27
*6676 FILLER_0_86_277
*6677 FILLER_0_86_289
*6678 FILLER_0_86_29
*6679 FILLER_0_86_3
*6680 FILLER_0_86_301
*6681 FILLER_0_86_307
*6682 FILLER_0_86_309
*6683 FILLER_0_86_321
*6684 FILLER_0_86_333
*6685 FILLER_0_86_345
*6686 FILLER_0_86_357
*6687 FILLER_0_86_363
*6688 FILLER_0_86_365
*6689 FILLER_0_86_377
*6690 FILLER_0_86_389
*6691 FILLER_0_86_401
*6692 FILLER_0_86_41
*6693 FILLER_0_86_413
*6694 FILLER_0_86_419
*6695 FILLER_0_86_421
*6696 FILLER_0_86_433
*6697 FILLER_0_86_445
*6698 FILLER_0_86_457
*6699 FILLER_0_86_469
*6700 FILLER_0_86_475
*6701 FILLER_0_86_477
*6702 FILLER_0_86_489
*6703 FILLER_0_86_501
*6704 FILLER_0_86_513
*6705 FILLER_0_86_525
*6706 FILLER_0_86_53
*6707 FILLER_0_86_531
*6708 FILLER_0_86_533
*6709 FILLER_0_86_545
*6710 FILLER_0_86_557
*6711 FILLER_0_86_569
*6712 FILLER_0_86_581
*6713 FILLER_0_86_587
*6714 FILLER_0_86_589
*6715 FILLER_0_86_601
*6716 FILLER_0_86_613
*6717 FILLER_0_86_65
*6718 FILLER_0_86_77
*6719 FILLER_0_86_83
*6720 FILLER_0_86_85
*6721 FILLER_0_86_97
*6722 FILLER_0_87_105
*6723 FILLER_0_87_111
*6724 FILLER_0_87_113
*6725 FILLER_0_87_125
*6726 FILLER_0_87_137
*6727 FILLER_0_87_149
*6728 FILLER_0_87_15
*6729 FILLER_0_87_161
*6730 FILLER_0_87_167
*6731 FILLER_0_87_169
*6732 FILLER_0_87_181
*6733 FILLER_0_87_193
*6734 FILLER_0_87_205
*6735 FILLER_0_87_217
*6736 FILLER_0_87_223
*6737 FILLER_0_87_225
*6738 FILLER_0_87_237
*6739 FILLER_0_87_249
*6740 FILLER_0_87_261
*6741 FILLER_0_87_27
*6742 FILLER_0_87_273
*6743 FILLER_0_87_279
*6744 FILLER_0_87_281
*6745 FILLER_0_87_293
*6746 FILLER_0_87_3
*6747 FILLER_0_87_305
*6748 FILLER_0_87_317
*6749 FILLER_0_87_329
*6750 FILLER_0_87_335
*6751 FILLER_0_87_337
*6752 FILLER_0_87_349
*6753 FILLER_0_87_361
*6754 FILLER_0_87_373
*6755 FILLER_0_87_385
*6756 FILLER_0_87_39
*6757 FILLER_0_87_391
*6758 FILLER_0_87_393
*6759 FILLER_0_87_405
*6760 FILLER_0_87_417
*6761 FILLER_0_87_429
*6762 FILLER_0_87_441
*6763 FILLER_0_87_447
*6764 FILLER_0_87_449
*6765 FILLER_0_87_461
*6766 FILLER_0_87_473
*6767 FILLER_0_87_485
*6768 FILLER_0_87_497
*6769 FILLER_0_87_503
*6770 FILLER_0_87_505
*6771 FILLER_0_87_51
*6772 FILLER_0_87_517
*6773 FILLER_0_87_529
*6774 FILLER_0_87_541
*6775 FILLER_0_87_55
*6776 FILLER_0_87_553
*6777 FILLER_0_87_559
*6778 FILLER_0_87_561
*6779 FILLER_0_87_57
*6780 FILLER_0_87_573
*6781 FILLER_0_87_585
*6782 FILLER_0_87_597
*6783 FILLER_0_87_609
*6784 FILLER_0_87_615
*6785 FILLER_0_87_617
*6786 FILLER_0_87_69
*6787 FILLER_0_87_81
*6788 FILLER_0_87_93
*6789 FILLER_0_88_109
*6790 FILLER_0_88_121
*6791 FILLER_0_88_133
*6792 FILLER_0_88_139
*6793 FILLER_0_88_141
*6794 FILLER_0_88_15
*6795 FILLER_0_88_153
*6796 FILLER_0_88_165
*6797 FILLER_0_88_177
*6798 FILLER_0_88_189
*6799 FILLER_0_88_195
*6800 FILLER_0_88_197
*6801 FILLER_0_88_209
*6802 FILLER_0_88_221
*6803 FILLER_0_88_233
*6804 FILLER_0_88_245
*6805 FILLER_0_88_251
*6806 FILLER_0_88_253
*6807 FILLER_0_88_265
*6808 FILLER_0_88_27
*6809 FILLER_0_88_277
*6810 FILLER_0_88_289
*6811 FILLER_0_88_29
*6812 FILLER_0_88_3
*6813 FILLER_0_88_301
*6814 FILLER_0_88_307
*6815 FILLER_0_88_309
*6816 FILLER_0_88_321
*6817 FILLER_0_88_333
*6818 FILLER_0_88_345
*6819 FILLER_0_88_357
*6820 FILLER_0_88_363
*6821 FILLER_0_88_365
*6822 FILLER_0_88_377
*6823 FILLER_0_88_389
*6824 FILLER_0_88_401
*6825 FILLER_0_88_41
*6826 FILLER_0_88_413
*6827 FILLER_0_88_419
*6828 FILLER_0_88_421
*6829 FILLER_0_88_433
*6830 FILLER_0_88_445
*6831 FILLER_0_88_457
*6832 FILLER_0_88_469
*6833 FILLER_0_88_475
*6834 FILLER_0_88_477
*6835 FILLER_0_88_489
*6836 FILLER_0_88_501
*6837 FILLER_0_88_513
*6838 FILLER_0_88_525
*6839 FILLER_0_88_53
*6840 FILLER_0_88_531
*6841 FILLER_0_88_533
*6842 FILLER_0_88_545
*6843 FILLER_0_88_557
*6844 FILLER_0_88_569
*6845 FILLER_0_88_581
*6846 FILLER_0_88_587
*6847 FILLER_0_88_589
*6848 FILLER_0_88_601
*6849 FILLER_0_88_613
*6850 FILLER_0_88_65
*6851 FILLER_0_88_77
*6852 FILLER_0_88_83
*6853 FILLER_0_88_85
*6854 FILLER_0_88_97
*6855 FILLER_0_89_105
*6856 FILLER_0_89_111
*6857 FILLER_0_89_113
*6858 FILLER_0_89_125
*6859 FILLER_0_89_137
*6860 FILLER_0_89_149
*6861 FILLER_0_89_15
*6862 FILLER_0_89_161
*6863 FILLER_0_89_167
*6864 FILLER_0_89_169
*6865 FILLER_0_89_181
*6866 FILLER_0_89_193
*6867 FILLER_0_89_205
*6868 FILLER_0_89_217
*6869 FILLER_0_89_223
*6870 FILLER_0_89_225
*6871 FILLER_0_89_237
*6872 FILLER_0_89_249
*6873 FILLER_0_89_261
*6874 FILLER_0_89_27
*6875 FILLER_0_89_273
*6876 FILLER_0_89_279
*6877 FILLER_0_89_281
*6878 FILLER_0_89_293
*6879 FILLER_0_89_3
*6880 FILLER_0_89_305
*6881 FILLER_0_89_317
*6882 FILLER_0_89_329
*6883 FILLER_0_89_335
*6884 FILLER_0_89_337
*6885 FILLER_0_89_349
*6886 FILLER_0_89_361
*6887 FILLER_0_89_373
*6888 FILLER_0_89_385
*6889 FILLER_0_89_39
*6890 FILLER_0_89_391
*6891 FILLER_0_89_393
*6892 FILLER_0_89_405
*6893 FILLER_0_89_417
*6894 FILLER_0_89_429
*6895 FILLER_0_89_441
*6896 FILLER_0_89_447
*6897 FILLER_0_89_449
*6898 FILLER_0_89_461
*6899 FILLER_0_89_473
*6900 FILLER_0_89_485
*6901 FILLER_0_89_497
*6902 FILLER_0_89_503
*6903 FILLER_0_89_505
*6904 FILLER_0_89_51
*6905 FILLER_0_89_517
*6906 FILLER_0_89_529
*6907 FILLER_0_89_541
*6908 FILLER_0_89_55
*6909 FILLER_0_89_553
*6910 FILLER_0_89_559
*6911 FILLER_0_89_561
*6912 FILLER_0_89_57
*6913 FILLER_0_89_573
*6914 FILLER_0_89_585
*6915 FILLER_0_89_597
*6916 FILLER_0_89_609
*6917 FILLER_0_89_615
*6918 FILLER_0_89_617
*6919 FILLER_0_89_69
*6920 FILLER_0_89_81
*6921 FILLER_0_89_93
*6922 FILLER_0_8_109
*6923 FILLER_0_8_121
*6924 FILLER_0_8_133
*6925 FILLER_0_8_139
*6926 FILLER_0_8_141
*6927 FILLER_0_8_15
*6928 FILLER_0_8_153
*6929 FILLER_0_8_165
*6930 FILLER_0_8_177
*6931 FILLER_0_8_189
*6932 FILLER_0_8_195
*6933 FILLER_0_8_197
*6934 FILLER_0_8_209
*6935 FILLER_0_8_221
*6936 FILLER_0_8_233
*6937 FILLER_0_8_245
*6938 FILLER_0_8_251
*6939 FILLER_0_8_253
*6940 FILLER_0_8_265
*6941 FILLER_0_8_27
*6942 FILLER_0_8_277
*6943 FILLER_0_8_289
*6944 FILLER_0_8_29
*6945 FILLER_0_8_3
*6946 FILLER_0_8_303
*6947 FILLER_0_8_307
*6948 FILLER_0_8_309
*6949 FILLER_0_8_321
*6950 FILLER_0_8_333
*6951 FILLER_0_8_345
*6952 FILLER_0_8_357
*6953 FILLER_0_8_363
*6954 FILLER_0_8_365
*6955 FILLER_0_8_377
*6956 FILLER_0_8_389
*6957 FILLER_0_8_393
*6958 FILLER_0_8_41
*6959 FILLER_0_8_418
*6960 FILLER_0_8_432
*6961 FILLER_0_8_444
*6962 FILLER_0_8_456
*6963 FILLER_0_8_468
*6964 FILLER_0_8_477
*6965 FILLER_0_8_489
*6966 FILLER_0_8_501
*6967 FILLER_0_8_513
*6968 FILLER_0_8_525
*6969 FILLER_0_8_53
*6970 FILLER_0_8_531
*6971 FILLER_0_8_533
*6972 FILLER_0_8_545
*6973 FILLER_0_8_557
*6974 FILLER_0_8_569
*6975 FILLER_0_8_581
*6976 FILLER_0_8_587
*6977 FILLER_0_8_589
*6978 FILLER_0_8_601
*6979 FILLER_0_8_613
*6980 FILLER_0_8_65
*6981 FILLER_0_8_77
*6982 FILLER_0_8_83
*6983 FILLER_0_8_85
*6984 FILLER_0_8_97
*6985 FILLER_0_90_109
*6986 FILLER_0_90_121
*6987 FILLER_0_90_133
*6988 FILLER_0_90_139
*6989 FILLER_0_90_141
*6990 FILLER_0_90_15
*6991 FILLER_0_90_153
*6992 FILLER_0_90_165
*6993 FILLER_0_90_177
*6994 FILLER_0_90_189
*6995 FILLER_0_90_195
*6996 FILLER_0_90_197
*6997 FILLER_0_90_209
*6998 FILLER_0_90_221
*6999 FILLER_0_90_233
*7000 FILLER_0_90_245
*7001 FILLER_0_90_251
*7002 FILLER_0_90_253
*7003 FILLER_0_90_265
*7004 FILLER_0_90_27
*7005 FILLER_0_90_277
*7006 FILLER_0_90_289
*7007 FILLER_0_90_29
*7008 FILLER_0_90_3
*7009 FILLER_0_90_301
*7010 FILLER_0_90_307
*7011 FILLER_0_90_309
*7012 FILLER_0_90_321
*7013 FILLER_0_90_333
*7014 FILLER_0_90_345
*7015 FILLER_0_90_357
*7016 FILLER_0_90_363
*7017 FILLER_0_90_365
*7018 FILLER_0_90_377
*7019 FILLER_0_90_389
*7020 FILLER_0_90_401
*7021 FILLER_0_90_41
*7022 FILLER_0_90_413
*7023 FILLER_0_90_419
*7024 FILLER_0_90_421
*7025 FILLER_0_90_433
*7026 FILLER_0_90_445
*7027 FILLER_0_90_457
*7028 FILLER_0_90_469
*7029 FILLER_0_90_475
*7030 FILLER_0_90_477
*7031 FILLER_0_90_489
*7032 FILLER_0_90_501
*7033 FILLER_0_90_513
*7034 FILLER_0_90_525
*7035 FILLER_0_90_53
*7036 FILLER_0_90_531
*7037 FILLER_0_90_533
*7038 FILLER_0_90_545
*7039 FILLER_0_90_557
*7040 FILLER_0_90_569
*7041 FILLER_0_90_581
*7042 FILLER_0_90_587
*7043 FILLER_0_90_589
*7044 FILLER_0_90_601
*7045 FILLER_0_90_613
*7046 FILLER_0_90_65
*7047 FILLER_0_90_77
*7048 FILLER_0_90_83
*7049 FILLER_0_90_85
*7050 FILLER_0_90_97
*7051 FILLER_0_91_105
*7052 FILLER_0_91_111
*7053 FILLER_0_91_113
*7054 FILLER_0_91_125
*7055 FILLER_0_91_137
*7056 FILLER_0_91_149
*7057 FILLER_0_91_15
*7058 FILLER_0_91_161
*7059 FILLER_0_91_167
*7060 FILLER_0_91_169
*7061 FILLER_0_91_181
*7062 FILLER_0_91_193
*7063 FILLER_0_91_205
*7064 FILLER_0_91_217
*7065 FILLER_0_91_223
*7066 FILLER_0_91_225
*7067 FILLER_0_91_237
*7068 FILLER_0_91_249
*7069 FILLER_0_91_261
*7070 FILLER_0_91_27
*7071 FILLER_0_91_273
*7072 FILLER_0_91_279
*7073 FILLER_0_91_281
*7074 FILLER_0_91_293
*7075 FILLER_0_91_3
*7076 FILLER_0_91_305
*7077 FILLER_0_91_317
*7078 FILLER_0_91_329
*7079 FILLER_0_91_335
*7080 FILLER_0_91_337
*7081 FILLER_0_91_349
*7082 FILLER_0_91_361
*7083 FILLER_0_91_373
*7084 FILLER_0_91_385
*7085 FILLER_0_91_39
*7086 FILLER_0_91_391
*7087 FILLER_0_91_393
*7088 FILLER_0_91_405
*7089 FILLER_0_91_417
*7090 FILLER_0_91_429
*7091 FILLER_0_91_441
*7092 FILLER_0_91_447
*7093 FILLER_0_91_449
*7094 FILLER_0_91_461
*7095 FILLER_0_91_473
*7096 FILLER_0_91_485
*7097 FILLER_0_91_497
*7098 FILLER_0_91_503
*7099 FILLER_0_91_505
*7100 FILLER_0_91_51
*7101 FILLER_0_91_517
*7102 FILLER_0_91_529
*7103 FILLER_0_91_541
*7104 FILLER_0_91_55
*7105 FILLER_0_91_553
*7106 FILLER_0_91_559
*7107 FILLER_0_91_561
*7108 FILLER_0_91_57
*7109 FILLER_0_91_573
*7110 FILLER_0_91_585
*7111 FILLER_0_91_597
*7112 FILLER_0_91_609
*7113 FILLER_0_91_615
*7114 FILLER_0_91_617
*7115 FILLER_0_91_69
*7116 FILLER_0_91_81
*7117 FILLER_0_91_93
*7118 FILLER_0_92_109
*7119 FILLER_0_92_121
*7120 FILLER_0_92_133
*7121 FILLER_0_92_139
*7122 FILLER_0_92_141
*7123 FILLER_0_92_153
*7124 FILLER_0_92_165
*7125 FILLER_0_92_177
*7126 FILLER_0_92_18
*7127 FILLER_0_92_189
*7128 FILLER_0_92_195
*7129 FILLER_0_92_197
*7130 FILLER_0_92_209
*7131 FILLER_0_92_221
*7132 FILLER_0_92_233
*7133 FILLER_0_92_245
*7134 FILLER_0_92_251
*7135 FILLER_0_92_253
*7136 FILLER_0_92_26
*7137 FILLER_0_92_265
*7138 FILLER_0_92_277
*7139 FILLER_0_92_289
*7140 FILLER_0_92_29
*7141 FILLER_0_92_301
*7142 FILLER_0_92_307
*7143 FILLER_0_92_309
*7144 FILLER_0_92_321
*7145 FILLER_0_92_333
*7146 FILLER_0_92_345
*7147 FILLER_0_92_357
*7148 FILLER_0_92_363
*7149 FILLER_0_92_365
*7150 FILLER_0_92_377
*7151 FILLER_0_92_389
*7152 FILLER_0_92_401
*7153 FILLER_0_92_41
*7154 FILLER_0_92_413
*7155 FILLER_0_92_419
*7156 FILLER_0_92_421
*7157 FILLER_0_92_433
*7158 FILLER_0_92_445
*7159 FILLER_0_92_457
*7160 FILLER_0_92_469
*7161 FILLER_0_92_475
*7162 FILLER_0_92_477
*7163 FILLER_0_92_489
*7164 FILLER_0_92_501
*7165 FILLER_0_92_513
*7166 FILLER_0_92_525
*7167 FILLER_0_92_53
*7168 FILLER_0_92_531
*7169 FILLER_0_92_533
*7170 FILLER_0_92_545
*7171 FILLER_0_92_557
*7172 FILLER_0_92_569
*7173 FILLER_0_92_581
*7174 FILLER_0_92_587
*7175 FILLER_0_92_589
*7176 FILLER_0_92_6
*7177 FILLER_0_92_601
*7178 FILLER_0_92_613
*7179 FILLER_0_92_65
*7180 FILLER_0_92_77
*7181 FILLER_0_92_83
*7182 FILLER_0_92_85
*7183 FILLER_0_92_97
*7184 FILLER_0_93_105
*7185 FILLER_0_93_111
*7186 FILLER_0_93_113
*7187 FILLER_0_93_125
*7188 FILLER_0_93_137
*7189 FILLER_0_93_149
*7190 FILLER_0_93_15
*7191 FILLER_0_93_161
*7192 FILLER_0_93_167
*7193 FILLER_0_93_169
*7194 FILLER_0_93_181
*7195 FILLER_0_93_193
*7196 FILLER_0_93_205
*7197 FILLER_0_93_217
*7198 FILLER_0_93_223
*7199 FILLER_0_93_225
*7200 FILLER_0_93_237
*7201 FILLER_0_93_249
*7202 FILLER_0_93_261
*7203 FILLER_0_93_27
*7204 FILLER_0_93_273
*7205 FILLER_0_93_279
*7206 FILLER_0_93_281
*7207 FILLER_0_93_293
*7208 FILLER_0_93_3
*7209 FILLER_0_93_305
*7210 FILLER_0_93_317
*7211 FILLER_0_93_325
*7212 FILLER_0_93_328
*7213 FILLER_0_93_337
*7214 FILLER_0_93_349
*7215 FILLER_0_93_361
*7216 FILLER_0_93_373
*7217 FILLER_0_93_385
*7218 FILLER_0_93_39
*7219 FILLER_0_93_391
*7220 FILLER_0_93_393
*7221 FILLER_0_93_405
*7222 FILLER_0_93_417
*7223 FILLER_0_93_429
*7224 FILLER_0_93_441
*7225 FILLER_0_93_447
*7226 FILLER_0_93_449
*7227 FILLER_0_93_461
*7228 FILLER_0_93_473
*7229 FILLER_0_93_485
*7230 FILLER_0_93_497
*7231 FILLER_0_93_503
*7232 FILLER_0_93_505
*7233 FILLER_0_93_51
*7234 FILLER_0_93_517
*7235 FILLER_0_93_529
*7236 FILLER_0_93_541
*7237 FILLER_0_93_55
*7238 FILLER_0_93_553
*7239 FILLER_0_93_559
*7240 FILLER_0_93_561
*7241 FILLER_0_93_57
*7242 FILLER_0_93_573
*7243 FILLER_0_93_585
*7244 FILLER_0_93_597
*7245 FILLER_0_93_609
*7246 FILLER_0_93_615
*7247 FILLER_0_93_617
*7248 FILLER_0_93_69
*7249 FILLER_0_93_81
*7250 FILLER_0_93_93
*7251 FILLER_0_94_109
*7252 FILLER_0_94_121
*7253 FILLER_0_94_133
*7254 FILLER_0_94_139
*7255 FILLER_0_94_141
*7256 FILLER_0_94_15
*7257 FILLER_0_94_153
*7258 FILLER_0_94_165
*7259 FILLER_0_94_177
*7260 FILLER_0_94_189
*7261 FILLER_0_94_195
*7262 FILLER_0_94_197
*7263 FILLER_0_94_209
*7264 FILLER_0_94_221
*7265 FILLER_0_94_233
*7266 FILLER_0_94_245
*7267 FILLER_0_94_251
*7268 FILLER_0_94_253
*7269 FILLER_0_94_265
*7270 FILLER_0_94_27
*7271 FILLER_0_94_277
*7272 FILLER_0_94_289
*7273 FILLER_0_94_29
*7274 FILLER_0_94_3
*7275 FILLER_0_94_301
*7276 FILLER_0_94_307
*7277 FILLER_0_94_309
*7278 FILLER_0_94_321
*7279 FILLER_0_94_330
*7280 FILLER_0_94_342
*7281 FILLER_0_94_354
*7282 FILLER_0_94_362
*7283 FILLER_0_94_365
*7284 FILLER_0_94_377
*7285 FILLER_0_94_389
*7286 FILLER_0_94_401
*7287 FILLER_0_94_41
*7288 FILLER_0_94_413
*7289 FILLER_0_94_419
*7290 FILLER_0_94_421
*7291 FILLER_0_94_433
*7292 FILLER_0_94_445
*7293 FILLER_0_94_457
*7294 FILLER_0_94_469
*7295 FILLER_0_94_475
*7296 FILLER_0_94_477
*7297 FILLER_0_94_489
*7298 FILLER_0_94_501
*7299 FILLER_0_94_513
*7300 FILLER_0_94_525
*7301 FILLER_0_94_53
*7302 FILLER_0_94_531
*7303 FILLER_0_94_533
*7304 FILLER_0_94_545
*7305 FILLER_0_94_557
*7306 FILLER_0_94_569
*7307 FILLER_0_94_581
*7308 FILLER_0_94_587
*7309 FILLER_0_94_589
*7310 FILLER_0_94_601
*7311 FILLER_0_94_613
*7312 FILLER_0_94_65
*7313 FILLER_0_94_77
*7314 FILLER_0_94_83
*7315 FILLER_0_94_85
*7316 FILLER_0_94_97
*7317 FILLER_0_95_105
*7318 FILLER_0_95_111
*7319 FILLER_0_95_113
*7320 FILLER_0_95_125
*7321 FILLER_0_95_137
*7322 FILLER_0_95_149
*7323 FILLER_0_95_15
*7324 FILLER_0_95_161
*7325 FILLER_0_95_167
*7326 FILLER_0_95_169
*7327 FILLER_0_95_180
*7328 FILLER_0_95_184
*7329 FILLER_0_95_196
*7330 FILLER_0_95_208
*7331 FILLER_0_95_220
*7332 FILLER_0_95_225
*7333 FILLER_0_95_237
*7334 FILLER_0_95_249
*7335 FILLER_0_95_261
*7336 FILLER_0_95_27
*7337 FILLER_0_95_273
*7338 FILLER_0_95_279
*7339 FILLER_0_95_281
*7340 FILLER_0_95_293
*7341 FILLER_0_95_3
*7342 FILLER_0_95_305
*7343 FILLER_0_95_317
*7344 FILLER_0_95_329
*7345 FILLER_0_95_335
*7346 FILLER_0_95_337
*7347 FILLER_0_95_349
*7348 FILLER_0_95_361
*7349 FILLER_0_95_373
*7350 FILLER_0_95_385
*7351 FILLER_0_95_39
*7352 FILLER_0_95_391
*7353 FILLER_0_95_393
*7354 FILLER_0_95_405
*7355 FILLER_0_95_417
*7356 FILLER_0_95_429
*7357 FILLER_0_95_441
*7358 FILLER_0_95_447
*7359 FILLER_0_95_449
*7360 FILLER_0_95_461
*7361 FILLER_0_95_473
*7362 FILLER_0_95_485
*7363 FILLER_0_95_497
*7364 FILLER_0_95_503
*7365 FILLER_0_95_505
*7366 FILLER_0_95_51
*7367 FILLER_0_95_517
*7368 FILLER_0_95_529
*7369 FILLER_0_95_541
*7370 FILLER_0_95_55
*7371 FILLER_0_95_553
*7372 FILLER_0_95_559
*7373 FILLER_0_95_561
*7374 FILLER_0_95_57
*7375 FILLER_0_95_573
*7376 FILLER_0_95_585
*7377 FILLER_0_95_597
*7378 FILLER_0_95_609
*7379 FILLER_0_95_615
*7380 FILLER_0_95_617
*7381 FILLER_0_95_69
*7382 FILLER_0_95_81
*7383 FILLER_0_95_93
*7384 FILLER_0_96_109
*7385 FILLER_0_96_121
*7386 FILLER_0_96_133
*7387 FILLER_0_96_139
*7388 FILLER_0_96_141
*7389 FILLER_0_96_15
*7390 FILLER_0_96_153
*7391 FILLER_0_96_165
*7392 FILLER_0_96_177
*7393 FILLER_0_96_189
*7394 FILLER_0_96_195
*7395 FILLER_0_96_197
*7396 FILLER_0_96_209
*7397 FILLER_0_96_221
*7398 FILLER_0_96_233
*7399 FILLER_0_96_245
*7400 FILLER_0_96_251
*7401 FILLER_0_96_253
*7402 FILLER_0_96_265
*7403 FILLER_0_96_27
*7404 FILLER_0_96_277
*7405 FILLER_0_96_289
*7406 FILLER_0_96_29
*7407 FILLER_0_96_3
*7408 FILLER_0_96_301
*7409 FILLER_0_96_307
*7410 FILLER_0_96_309
*7411 FILLER_0_96_321
*7412 FILLER_0_96_333
*7413 FILLER_0_96_345
*7414 FILLER_0_96_357
*7415 FILLER_0_96_363
*7416 FILLER_0_96_365
*7417 FILLER_0_96_377
*7418 FILLER_0_96_389
*7419 FILLER_0_96_401
*7420 FILLER_0_96_41
*7421 FILLER_0_96_413
*7422 FILLER_0_96_419
*7423 FILLER_0_96_421
*7424 FILLER_0_96_433
*7425 FILLER_0_96_445
*7426 FILLER_0_96_457
*7427 FILLER_0_96_469
*7428 FILLER_0_96_475
*7429 FILLER_0_96_477
*7430 FILLER_0_96_489
*7431 FILLER_0_96_501
*7432 FILLER_0_96_513
*7433 FILLER_0_96_525
*7434 FILLER_0_96_53
*7435 FILLER_0_96_531
*7436 FILLER_0_96_533
*7437 FILLER_0_96_545
*7438 FILLER_0_96_557
*7439 FILLER_0_96_569
*7440 FILLER_0_96_581
*7441 FILLER_0_96_587
*7442 FILLER_0_96_589
*7443 FILLER_0_96_601
*7444 FILLER_0_96_613
*7445 FILLER_0_96_65
*7446 FILLER_0_96_77
*7447 FILLER_0_96_83
*7448 FILLER_0_96_85
*7449 FILLER_0_96_97
*7450 FILLER_0_97_105
*7451 FILLER_0_97_111
*7452 FILLER_0_97_113
*7453 FILLER_0_97_125
*7454 FILLER_0_97_137
*7455 FILLER_0_97_149
*7456 FILLER_0_97_161
*7457 FILLER_0_97_167
*7458 FILLER_0_97_169
*7459 FILLER_0_97_181
*7460 FILLER_0_97_193
*7461 FILLER_0_97_205
*7462 FILLER_0_97_21
*7463 FILLER_0_97_217
*7464 FILLER_0_97_223
*7465 FILLER_0_97_225
*7466 FILLER_0_97_237
*7467 FILLER_0_97_249
*7468 FILLER_0_97_261
*7469 FILLER_0_97_273
*7470 FILLER_0_97_279
*7471 FILLER_0_97_281
*7472 FILLER_0_97_293
*7473 FILLER_0_97_305
*7474 FILLER_0_97_317
*7475 FILLER_0_97_329
*7476 FILLER_0_97_33
*7477 FILLER_0_97_335
*7478 FILLER_0_97_337
*7479 FILLER_0_97_349
*7480 FILLER_0_97_361
*7481 FILLER_0_97_373
*7482 FILLER_0_97_385
*7483 FILLER_0_97_391
*7484 FILLER_0_97_393
*7485 FILLER_0_97_405
*7486 FILLER_0_97_417
*7487 FILLER_0_97_429
*7488 FILLER_0_97_441
*7489 FILLER_0_97_447
*7490 FILLER_0_97_449
*7491 FILLER_0_97_45
*7492 FILLER_0_97_461
*7493 FILLER_0_97_473
*7494 FILLER_0_97_485
*7495 FILLER_0_97_497
*7496 FILLER_0_97_503
*7497 FILLER_0_97_505
*7498 FILLER_0_97_517
*7499 FILLER_0_97_529
*7500 FILLER_0_97_53
*7501 FILLER_0_97_541
*7502 FILLER_0_97_553
*7503 FILLER_0_97_559
*7504 FILLER_0_97_561
*7505 FILLER_0_97_57
*7506 FILLER_0_97_573
*7507 FILLER_0_97_585
*7508 FILLER_0_97_597
*7509 FILLER_0_97_609
*7510 FILLER_0_97_613
*7511 FILLER_0_97_617
*7512 FILLER_0_97_69
*7513 FILLER_0_97_81
*7514 FILLER_0_97_9
*7515 FILLER_0_97_93
*7516 FILLER_0_98_109
*7517 FILLER_0_98_121
*7518 FILLER_0_98_133
*7519 FILLER_0_98_139
*7520 FILLER_0_98_141
*7521 FILLER_0_98_15
*7522 FILLER_0_98_153
*7523 FILLER_0_98_165
*7524 FILLER_0_98_177
*7525 FILLER_0_98_189
*7526 FILLER_0_98_195
*7527 FILLER_0_98_197
*7528 FILLER_0_98_209
*7529 FILLER_0_98_221
*7530 FILLER_0_98_233
*7531 FILLER_0_98_245
*7532 FILLER_0_98_251
*7533 FILLER_0_98_253
*7534 FILLER_0_98_265
*7535 FILLER_0_98_27
*7536 FILLER_0_98_277
*7537 FILLER_0_98_289
*7538 FILLER_0_98_29
*7539 FILLER_0_98_3
*7540 FILLER_0_98_301
*7541 FILLER_0_98_307
*7542 FILLER_0_98_309
*7543 FILLER_0_98_321
*7544 FILLER_0_98_333
*7545 FILLER_0_98_345
*7546 FILLER_0_98_357
*7547 FILLER_0_98_363
*7548 FILLER_0_98_365
*7549 FILLER_0_98_377
*7550 FILLER_0_98_389
*7551 FILLER_0_98_401
*7552 FILLER_0_98_41
*7553 FILLER_0_98_413
*7554 FILLER_0_98_419
*7555 FILLER_0_98_421
*7556 FILLER_0_98_433
*7557 FILLER_0_98_445
*7558 FILLER_0_98_457
*7559 FILLER_0_98_469
*7560 FILLER_0_98_475
*7561 FILLER_0_98_477
*7562 FILLER_0_98_489
*7563 FILLER_0_98_501
*7564 FILLER_0_98_513
*7565 FILLER_0_98_525
*7566 FILLER_0_98_53
*7567 FILLER_0_98_531
*7568 FILLER_0_98_533
*7569 FILLER_0_98_545
*7570 FILLER_0_98_557
*7571 FILLER_0_98_569
*7572 FILLER_0_98_581
*7573 FILLER_0_98_587
*7574 FILLER_0_98_589
*7575 FILLER_0_98_601
*7576 FILLER_0_98_613
*7577 FILLER_0_98_65
*7578 FILLER_0_98_77
*7579 FILLER_0_98_83
*7580 FILLER_0_98_85
*7581 FILLER_0_98_97
*7582 FILLER_0_99_105
*7583 FILLER_0_99_11
*7584 FILLER_0_99_111
*7585 FILLER_0_99_113
*7586 FILLER_0_99_125
*7587 FILLER_0_99_137
*7588 FILLER_0_99_149
*7589 FILLER_0_99_15
*7590 FILLER_0_99_161
*7591 FILLER_0_99_167
*7592 FILLER_0_99_169
*7593 FILLER_0_99_175
*7594 FILLER_0_99_179
*7595 FILLER_0_99_183
*7596 FILLER_0_99_189
*7597 FILLER_0_99_19
*7598 FILLER_0_99_193
*7599 FILLER_0_99_205
*7600 FILLER_0_99_217
*7601 FILLER_0_99_223
*7602 FILLER_0_99_225
*7603 FILLER_0_99_237
*7604 FILLER_0_99_249
*7605 FILLER_0_99_261
*7606 FILLER_0_99_273
*7607 FILLER_0_99_279
*7608 FILLER_0_99_281
*7609 FILLER_0_99_293
*7610 FILLER_0_99_3
*7611 FILLER_0_99_305
*7612 FILLER_0_99_31
*7613 FILLER_0_99_317
*7614 FILLER_0_99_329
*7615 FILLER_0_99_335
*7616 FILLER_0_99_340
*7617 FILLER_0_99_344
*7618 FILLER_0_99_356
*7619 FILLER_0_99_368
*7620 FILLER_0_99_380
*7621 FILLER_0_99_393
*7622 FILLER_0_99_405
*7623 FILLER_0_99_417
*7624 FILLER_0_99_429
*7625 FILLER_0_99_43
*7626 FILLER_0_99_441
*7627 FILLER_0_99_447
*7628 FILLER_0_99_449
*7629 FILLER_0_99_461
*7630 FILLER_0_99_473
*7631 FILLER_0_99_477
*7632 FILLER_0_99_487
*7633 FILLER_0_99_493
*7634 FILLER_0_99_497
*7635 FILLER_0_99_501
*7636 FILLER_0_99_505
*7637 FILLER_0_99_517
*7638 FILLER_0_99_529
*7639 FILLER_0_99_541
*7640 FILLER_0_99_55
*7641 FILLER_0_99_553
*7642 FILLER_0_99_559
*7643 FILLER_0_99_561
*7644 FILLER_0_99_57
*7645 FILLER_0_99_573
*7646 FILLER_0_99_585
*7647 FILLER_0_99_597
*7648 FILLER_0_99_609
*7649 FILLER_0_99_615
*7650 FILLER_0_99_617
*7651 FILLER_0_99_69
*7652 FILLER_0_99_81
*7653 FILLER_0_99_93
*7654 FILLER_0_9_105
*7655 FILLER_0_9_111
*7656 FILLER_0_9_113
*7657 FILLER_0_9_125
*7658 FILLER_0_9_137
*7659 FILLER_0_9_149
*7660 FILLER_0_9_15
*7661 FILLER_0_9_161
*7662 FILLER_0_9_167
*7663 FILLER_0_9_169
*7664 FILLER_0_9_181
*7665 FILLER_0_9_193
*7666 FILLER_0_9_205
*7667 FILLER_0_9_217
*7668 FILLER_0_9_223
*7669 FILLER_0_9_225
*7670 FILLER_0_9_237
*7671 FILLER_0_9_249
*7672 FILLER_0_9_261
*7673 FILLER_0_9_27
*7674 FILLER_0_9_273
*7675 FILLER_0_9_279
*7676 FILLER_0_9_3
*7677 FILLER_0_9_307
*7678 FILLER_0_9_311
*7679 FILLER_0_9_323
*7680 FILLER_0_9_335
*7681 FILLER_0_9_337
*7682 FILLER_0_9_349
*7683 FILLER_0_9_361
*7684 FILLER_0_9_373
*7685 FILLER_0_9_387
*7686 FILLER_0_9_39
*7687 FILLER_0_9_391
*7688 FILLER_0_9_441
*7689 FILLER_0_9_447
*7690 FILLER_0_9_449
*7691 FILLER_0_9_461
*7692 FILLER_0_9_473
*7693 FILLER_0_9_485
*7694 FILLER_0_9_497
*7695 FILLER_0_9_503
*7696 FILLER_0_9_505
*7697 FILLER_0_9_51
*7698 FILLER_0_9_517
*7699 FILLER_0_9_529
*7700 FILLER_0_9_541
*7701 FILLER_0_9_55
*7702 FILLER_0_9_553
*7703 FILLER_0_9_559
*7704 FILLER_0_9_561
*7705 FILLER_0_9_57
*7706 FILLER_0_9_573
*7707 FILLER_0_9_585
*7708 FILLER_0_9_597
*7709 FILLER_0_9_609
*7710 FILLER_0_9_615
*7711 FILLER_0_9_617
*7712 FILLER_0_9_69
*7713 FILLER_0_9_81
*7714 FILLER_0_9_93
*7715 PHY_0
*7716 PHY_1
*7717 PHY_10
*7718 PHY_100
*7719 PHY_101
*7720 PHY_102
*7721 PHY_103
*7722 PHY_104
*7723 PHY_105
*7724 PHY_106
*7725 PHY_107
*7726 PHY_108
*7727 PHY_109
*7728 PHY_11
*7729 PHY_110
*7730 PHY_111
*7731 PHY_112
*7732 PHY_113
*7733 PHY_114
*7734 PHY_115
*7735 PHY_116
*7736 PHY_117
*7737 PHY_118
*7738 PHY_119
*7739 PHY_12
*7740 PHY_120
*7741 PHY_121
*7742 PHY_122
*7743 PHY_123
*7744 PHY_124
*7745 PHY_125
*7746 PHY_126
*7747 PHY_127
*7748 PHY_128
*7749 PHY_129
*7750 PHY_13
*7751 PHY_130
*7752 PHY_131
*7753 PHY_132
*7754 PHY_133
*7755 PHY_134
*7756 PHY_135
*7757 PHY_136
*7758 PHY_137
*7759 PHY_138
*7760 PHY_139
*7761 PHY_14
*7762 PHY_140
*7763 PHY_141
*7764 PHY_142
*7765 PHY_143
*7766 PHY_144
*7767 PHY_145
*7768 PHY_146
*7769 PHY_147
*7770 PHY_148
*7771 PHY_149
*7772 PHY_15
*7773 PHY_150
*7774 PHY_151
*7775 PHY_152
*7776 PHY_153
*7777 PHY_154
*7778 PHY_155
*7779 PHY_156
*7780 PHY_157
*7781 PHY_158
*7782 PHY_159
*7783 PHY_16
*7784 PHY_160
*7785 PHY_161
*7786 PHY_162
*7787 PHY_163
*7788 PHY_164
*7789 PHY_165
*7790 PHY_166
*7791 PHY_167
*7792 PHY_168
*7793 PHY_169
*7794 PHY_17
*7795 PHY_170
*7796 PHY_171
*7797 PHY_172
*7798 PHY_173
*7799 PHY_174
*7800 PHY_175
*7801 PHY_176
*7802 PHY_177
*7803 PHY_178
*7804 PHY_179
*7805 PHY_18
*7806 PHY_180
*7807 PHY_181
*7808 PHY_182
*7809 PHY_183
*7810 PHY_184
*7811 PHY_185
*7812 PHY_186
*7813 PHY_187
*7814 PHY_188
*7815 PHY_189
*7816 PHY_19
*7817 PHY_190
*7818 PHY_191
*7819 PHY_192
*7820 PHY_193
*7821 PHY_194
*7822 PHY_195
*7823 PHY_196
*7824 PHY_197
*7825 PHY_198
*7826 PHY_199
*7827 PHY_2
*7828 PHY_20
*7829 PHY_200
*7830 PHY_201
*7831 PHY_202
*7832 PHY_203
*7833 PHY_21
*7834 PHY_22
*7835 PHY_23
*7836 PHY_24
*7837 PHY_25
*7838 PHY_26
*7839 PHY_27
*7840 PHY_28
*7841 PHY_29
*7842 PHY_3
*7843 PHY_30
*7844 PHY_31
*7845 PHY_32
*7846 PHY_33
*7847 PHY_34
*7848 PHY_35
*7849 PHY_36
*7850 PHY_37
*7851 PHY_38
*7852 PHY_39
*7853 PHY_4
*7854 PHY_40
*7855 PHY_41
*7856 PHY_42
*7857 PHY_43
*7858 PHY_44
*7859 PHY_45
*7860 PHY_46
*7861 PHY_47
*7862 PHY_48
*7863 PHY_49
*7864 PHY_5
*7865 PHY_50
*7866 PHY_51
*7867 PHY_52
*7868 PHY_53
*7869 PHY_54
*7870 PHY_55
*7871 PHY_56
*7872 PHY_57
*7873 PHY_58
*7874 PHY_59
*7875 PHY_6
*7876 PHY_60
*7877 PHY_61
*7878 PHY_62
*7879 PHY_63
*7880 PHY_64
*7881 PHY_65
*7882 PHY_66
*7883 PHY_67
*7884 PHY_68
*7885 PHY_69
*7886 PHY_7
*7887 PHY_70
*7888 PHY_71
*7889 PHY_72
*7890 PHY_73
*7891 PHY_74
*7892 PHY_75
*7893 PHY_76
*7894 PHY_77
*7895 PHY_78
*7896 PHY_79
*7897 PHY_8
*7898 PHY_80
*7899 PHY_81
*7900 PHY_82
*7901 PHY_83
*7902 PHY_84
*7903 PHY_85
*7904 PHY_86
*7905 PHY_87
*7906 PHY_88
*7907 PHY_89
*7908 PHY_9
*7909 PHY_90
*7910 PHY_91
*7911 PHY_92
*7912 PHY_93
*7913 PHY_94
*7914 PHY_95
*7915 PHY_96
*7916 PHY_97
*7917 PHY_98
*7918 PHY_99
*7919 TAP_1000
*7920 TAP_1001
*7921 TAP_1002
*7922 TAP_1003
*7923 TAP_1004
*7924 TAP_1005
*7925 TAP_1006
*7926 TAP_1007
*7927 TAP_1008
*7928 TAP_1009
*7929 TAP_1010
*7930 TAP_1011
*7931 TAP_1012
*7932 TAP_1013
*7933 TAP_1014
*7934 TAP_1015
*7935 TAP_1016
*7936 TAP_1017
*7937 TAP_1018
*7938 TAP_1019
*7939 TAP_1020
*7940 TAP_1021
*7941 TAP_1022
*7942 TAP_1023
*7943 TAP_1024
*7944 TAP_1025
*7945 TAP_1026
*7946 TAP_1027
*7947 TAP_1028
*7948 TAP_1029
*7949 TAP_1030
*7950 TAP_1031
*7951 TAP_1032
*7952 TAP_1033
*7953 TAP_1034
*7954 TAP_1035
*7955 TAP_1036
*7956 TAP_1037
*7957 TAP_1038
*7958 TAP_1039
*7959 TAP_1040
*7960 TAP_1041
*7961 TAP_1042
*7962 TAP_1043
*7963 TAP_1044
*7964 TAP_1045
*7965 TAP_1046
*7966 TAP_1047
*7967 TAP_1048
*7968 TAP_1049
*7969 TAP_1050
*7970 TAP_1051
*7971 TAP_1052
*7972 TAP_1053
*7973 TAP_1054
*7974 TAP_1055
*7975 TAP_1056
*7976 TAP_1057
*7977 TAP_1058
*7978 TAP_1059
*7979 TAP_1060
*7980 TAP_1061
*7981 TAP_1062
*7982 TAP_1063
*7983 TAP_1064
*7984 TAP_1065
*7985 TAP_1066
*7986 TAP_1067
*7987 TAP_1068
*7988 TAP_1069
*7989 TAP_1070
*7990 TAP_1071
*7991 TAP_1072
*7992 TAP_1073
*7993 TAP_1074
*7994 TAP_1075
*7995 TAP_1076
*7996 TAP_1077
*7997 TAP_1078
*7998 TAP_1079
*7999 TAP_1080
*8000 TAP_1081
*8001 TAP_1082
*8002 TAP_1083
*8003 TAP_1084
*8004 TAP_1085
*8005 TAP_1086
*8006 TAP_1087
*8007 TAP_1088
*8008 TAP_1089
*8009 TAP_1090
*8010 TAP_1091
*8011 TAP_1092
*8012 TAP_1093
*8013 TAP_1094
*8014 TAP_1095
*8015 TAP_1096
*8016 TAP_1097
*8017 TAP_1098
*8018 TAP_1099
*8019 TAP_1100
*8020 TAP_1101
*8021 TAP_1102
*8022 TAP_1103
*8023 TAP_1104
*8024 TAP_1105
*8025 TAP_1106
*8026 TAP_1107
*8027 TAP_1108
*8028 TAP_1109
*8029 TAP_1110
*8030 TAP_1111
*8031 TAP_1112
*8032 TAP_1113
*8033 TAP_1114
*8034 TAP_1115
*8035 TAP_1116
*8036 TAP_1117
*8037 TAP_1118
*8038 TAP_1119
*8039 TAP_1120
*8040 TAP_1121
*8041 TAP_1122
*8042 TAP_1123
*8043 TAP_1124
*8044 TAP_1125
*8045 TAP_1126
*8046 TAP_1127
*8047 TAP_1128
*8048 TAP_1129
*8049 TAP_1130
*8050 TAP_1131
*8051 TAP_1132
*8052 TAP_1133
*8053 TAP_1134
*8054 TAP_1135
*8055 TAP_1136
*8056 TAP_1137
*8057 TAP_1138
*8058 TAP_1139
*8059 TAP_1140
*8060 TAP_1141
*8061 TAP_1142
*8062 TAP_1143
*8063 TAP_1144
*8064 TAP_1145
*8065 TAP_1146
*8066 TAP_1147
*8067 TAP_1148
*8068 TAP_1149
*8069 TAP_1150
*8070 TAP_1151
*8071 TAP_1152
*8072 TAP_1153
*8073 TAP_1154
*8074 TAP_1155
*8075 TAP_1156
*8076 TAP_1157
*8077 TAP_1158
*8078 TAP_1159
*8079 TAP_1160
*8080 TAP_1161
*8081 TAP_1162
*8082 TAP_1163
*8083 TAP_1164
*8084 TAP_1165
*8085 TAP_1166
*8086 TAP_1167
*8087 TAP_1168
*8088 TAP_1169
*8089 TAP_1170
*8090 TAP_1171
*8091 TAP_1172
*8092 TAP_1173
*8093 TAP_1174
*8094 TAP_1175
*8095 TAP_1176
*8096 TAP_1177
*8097 TAP_1178
*8098 TAP_1179
*8099 TAP_1180
*8100 TAP_1181
*8101 TAP_1182
*8102 TAP_1183
*8103 TAP_1184
*8104 TAP_1185
*8105 TAP_1186
*8106 TAP_1187
*8107 TAP_1188
*8108 TAP_1189
*8109 TAP_1190
*8110 TAP_1191
*8111 TAP_1192
*8112 TAP_1193
*8113 TAP_1194
*8114 TAP_1195
*8115 TAP_1196
*8116 TAP_1197
*8117 TAP_1198
*8118 TAP_1199
*8119 TAP_1200
*8120 TAP_1201
*8121 TAP_1202
*8122 TAP_1203
*8123 TAP_1204
*8124 TAP_1205
*8125 TAP_1206
*8126 TAP_1207
*8127 TAP_1208
*8128 TAP_1209
*8129 TAP_1210
*8130 TAP_1211
*8131 TAP_1212
*8132 TAP_1213
*8133 TAP_1214
*8134 TAP_1215
*8135 TAP_1216
*8136 TAP_1217
*8137 TAP_1218
*8138 TAP_1219
*8139 TAP_1220
*8140 TAP_1221
*8141 TAP_1222
*8142 TAP_1223
*8143 TAP_1224
*8144 TAP_1225
*8145 TAP_1226
*8146 TAP_1227
*8147 TAP_1228
*8148 TAP_1229
*8149 TAP_1230
*8150 TAP_1231
*8151 TAP_1232
*8152 TAP_1233
*8153 TAP_1234
*8154 TAP_1235
*8155 TAP_1236
*8156 TAP_1237
*8157 TAP_1238
*8158 TAP_1239
*8159 TAP_1240
*8160 TAP_1241
*8161 TAP_1242
*8162 TAP_1243
*8163 TAP_1244
*8164 TAP_1245
*8165 TAP_1246
*8166 TAP_1247
*8167 TAP_1248
*8168 TAP_1249
*8169 TAP_1250
*8170 TAP_1251
*8171 TAP_1252
*8172 TAP_1253
*8173 TAP_1254
*8174 TAP_1255
*8175 TAP_1256
*8176 TAP_1257
*8177 TAP_1258
*8178 TAP_1259
*8179 TAP_1260
*8180 TAP_1261
*8181 TAP_1262
*8182 TAP_1263
*8183 TAP_1264
*8184 TAP_1265
*8185 TAP_1266
*8186 TAP_1267
*8187 TAP_1268
*8188 TAP_1269
*8189 TAP_1270
*8190 TAP_1271
*8191 TAP_1272
*8192 TAP_1273
*8193 TAP_1274
*8194 TAP_1275
*8195 TAP_1276
*8196 TAP_1277
*8197 TAP_1278
*8198 TAP_1279
*8199 TAP_1280
*8200 TAP_1281
*8201 TAP_1282
*8202 TAP_1283
*8203 TAP_1284
*8204 TAP_1285
*8205 TAP_1286
*8206 TAP_1287
*8207 TAP_1288
*8208 TAP_1289
*8209 TAP_1290
*8210 TAP_1291
*8211 TAP_1292
*8212 TAP_1293
*8213 TAP_1294
*8214 TAP_1295
*8215 TAP_1296
*8216 TAP_1297
*8217 TAP_1298
*8218 TAP_1299
*8219 TAP_1300
*8220 TAP_1301
*8221 TAP_1302
*8222 TAP_1303
*8223 TAP_1304
*8224 TAP_1305
*8225 TAP_1306
*8226 TAP_1307
*8227 TAP_1308
*8228 TAP_1309
*8229 TAP_1310
*8230 TAP_1311
*8231 TAP_1312
*8232 TAP_1313
*8233 TAP_1314
*8234 TAP_1315
*8235 TAP_1316
*8236 TAP_1317
*8237 TAP_1318
*8238 TAP_1319
*8239 TAP_1320
*8240 TAP_1321
*8241 TAP_1322
*8242 TAP_1323
*8243 TAP_1324
*8244 TAP_1325
*8245 TAP_1326
*8246 TAP_1327
*8247 TAP_1328
*8248 TAP_1329
*8249 TAP_1330
*8250 TAP_1331
*8251 TAP_1332
*8252 TAP_1333
*8253 TAP_1334
*8254 TAP_1335
*8255 TAP_1336
*8256 TAP_1337
*8257 TAP_1338
*8258 TAP_1339
*8259 TAP_1340
*8260 TAP_1341
*8261 TAP_1342
*8262 TAP_1343
*8263 TAP_1344
*8264 TAP_1345
*8265 TAP_1346
*8266 TAP_1347
*8267 TAP_204
*8268 TAP_205
*8269 TAP_206
*8270 TAP_207
*8271 TAP_208
*8272 TAP_209
*8273 TAP_210
*8274 TAP_211
*8275 TAP_212
*8276 TAP_213
*8277 TAP_214
*8278 TAP_215
*8279 TAP_216
*8280 TAP_217
*8281 TAP_218
*8282 TAP_219
*8283 TAP_220
*8284 TAP_221
*8285 TAP_222
*8286 TAP_223
*8287 TAP_224
*8288 TAP_225
*8289 TAP_226
*8290 TAP_227
*8291 TAP_228
*8292 TAP_229
*8293 TAP_230
*8294 TAP_231
*8295 TAP_232
*8296 TAP_233
*8297 TAP_234
*8298 TAP_235
*8299 TAP_236
*8300 TAP_237
*8301 TAP_238
*8302 TAP_239
*8303 TAP_240
*8304 TAP_241
*8305 TAP_242
*8306 TAP_243
*8307 TAP_244
*8308 TAP_245
*8309 TAP_246
*8310 TAP_247
*8311 TAP_248
*8312 TAP_249
*8313 TAP_250
*8314 TAP_251
*8315 TAP_252
*8316 TAP_253
*8317 TAP_254
*8318 TAP_255
*8319 TAP_256
*8320 TAP_257
*8321 TAP_258
*8322 TAP_259
*8323 TAP_260
*8324 TAP_261
*8325 TAP_262
*8326 TAP_263
*8327 TAP_264
*8328 TAP_265
*8329 TAP_266
*8330 TAP_267
*8331 TAP_268
*8332 TAP_269
*8333 TAP_270
*8334 TAP_271
*8335 TAP_272
*8336 TAP_273
*8337 TAP_274
*8338 TAP_275
*8339 TAP_276
*8340 TAP_277
*8341 TAP_278
*8342 TAP_279
*8343 TAP_280
*8344 TAP_281
*8345 TAP_282
*8346 TAP_283
*8347 TAP_284
*8348 TAP_285
*8349 TAP_286
*8350 TAP_287
*8351 TAP_288
*8352 TAP_289
*8353 TAP_290
*8354 TAP_291
*8355 TAP_292
*8356 TAP_293
*8357 TAP_294
*8358 TAP_295
*8359 TAP_296
*8360 TAP_297
*8361 TAP_298
*8362 TAP_299
*8363 TAP_300
*8364 TAP_301
*8365 TAP_302
*8366 TAP_303
*8367 TAP_304
*8368 TAP_305
*8369 TAP_306
*8370 TAP_307
*8371 TAP_308
*8372 TAP_309
*8373 TAP_310
*8374 TAP_311
*8375 TAP_312
*8376 TAP_313
*8377 TAP_314
*8378 TAP_315
*8379 TAP_316
*8380 TAP_317
*8381 TAP_318
*8382 TAP_319
*8383 TAP_320
*8384 TAP_321
*8385 TAP_322
*8386 TAP_323
*8387 TAP_324
*8388 TAP_325
*8389 TAP_326
*8390 TAP_327
*8391 TAP_328
*8392 TAP_329
*8393 TAP_330
*8394 TAP_331
*8395 TAP_332
*8396 TAP_333
*8397 TAP_334
*8398 TAP_335
*8399 TAP_336
*8400 TAP_337
*8401 TAP_338
*8402 TAP_339
*8403 TAP_340
*8404 TAP_341
*8405 TAP_342
*8406 TAP_343
*8407 TAP_344
*8408 TAP_345
*8409 TAP_346
*8410 TAP_347
*8411 TAP_348
*8412 TAP_349
*8413 TAP_350
*8414 TAP_351
*8415 TAP_352
*8416 TAP_353
*8417 TAP_354
*8418 TAP_355
*8419 TAP_356
*8420 TAP_357
*8421 TAP_358
*8422 TAP_359
*8423 TAP_360
*8424 TAP_361
*8425 TAP_362
*8426 TAP_363
*8427 TAP_364
*8428 TAP_365
*8429 TAP_366
*8430 TAP_367
*8431 TAP_368
*8432 TAP_369
*8433 TAP_370
*8434 TAP_371
*8435 TAP_372
*8436 TAP_373
*8437 TAP_374
*8438 TAP_375
*8439 TAP_376
*8440 TAP_377
*8441 TAP_378
*8442 TAP_379
*8443 TAP_380
*8444 TAP_381
*8445 TAP_382
*8446 TAP_383
*8447 TAP_384
*8448 TAP_385
*8449 TAP_386
*8450 TAP_387
*8451 TAP_388
*8452 TAP_389
*8453 TAP_390
*8454 TAP_391
*8455 TAP_392
*8456 TAP_393
*8457 TAP_394
*8458 TAP_395
*8459 TAP_396
*8460 TAP_397
*8461 TAP_398
*8462 TAP_399
*8463 TAP_400
*8464 TAP_401
*8465 TAP_402
*8466 TAP_403
*8467 TAP_404
*8468 TAP_405
*8469 TAP_406
*8470 TAP_407
*8471 TAP_408
*8472 TAP_409
*8473 TAP_410
*8474 TAP_411
*8475 TAP_412
*8476 TAP_413
*8477 TAP_414
*8478 TAP_415
*8479 TAP_416
*8480 TAP_417
*8481 TAP_418
*8482 TAP_419
*8483 TAP_420
*8484 TAP_421
*8485 TAP_422
*8486 TAP_423
*8487 TAP_424
*8488 TAP_425
*8489 TAP_426
*8490 TAP_427
*8491 TAP_428
*8492 TAP_429
*8493 TAP_430
*8494 TAP_431
*8495 TAP_432
*8496 TAP_433
*8497 TAP_434
*8498 TAP_435
*8499 TAP_436
*8500 TAP_437
*8501 TAP_438
*8502 TAP_439
*8503 TAP_440
*8504 TAP_441
*8505 TAP_442
*8506 TAP_443
*8507 TAP_444
*8508 TAP_445
*8509 TAP_446
*8510 TAP_447
*8511 TAP_448
*8512 TAP_449
*8513 TAP_450
*8514 TAP_451
*8515 TAP_452
*8516 TAP_453
*8517 TAP_454
*8518 TAP_455
*8519 TAP_456
*8520 TAP_457
*8521 TAP_458
*8522 TAP_459
*8523 TAP_460
*8524 TAP_461
*8525 TAP_462
*8526 TAP_463
*8527 TAP_464
*8528 TAP_465
*8529 TAP_466
*8530 TAP_467
*8531 TAP_468
*8532 TAP_469
*8533 TAP_470
*8534 TAP_471
*8535 TAP_472
*8536 TAP_473
*8537 TAP_474
*8538 TAP_475
*8539 TAP_476
*8540 TAP_477
*8541 TAP_478
*8542 TAP_479
*8543 TAP_480
*8544 TAP_481
*8545 TAP_482
*8546 TAP_483
*8547 TAP_484
*8548 TAP_485
*8549 TAP_486
*8550 TAP_487
*8551 TAP_488
*8552 TAP_489
*8553 TAP_490
*8554 TAP_491
*8555 TAP_492
*8556 TAP_493
*8557 TAP_494
*8558 TAP_495
*8559 TAP_496
*8560 TAP_497
*8561 TAP_498
*8562 TAP_499
*8563 TAP_500
*8564 TAP_501
*8565 TAP_502
*8566 TAP_503
*8567 TAP_504
*8568 TAP_505
*8569 TAP_506
*8570 TAP_507
*8571 TAP_508
*8572 TAP_509
*8573 TAP_510
*8574 TAP_511
*8575 TAP_512
*8576 TAP_513
*8577 TAP_514
*8578 TAP_515
*8579 TAP_516
*8580 TAP_517
*8581 TAP_518
*8582 TAP_519
*8583 TAP_520
*8584 TAP_521
*8585 TAP_522
*8586 TAP_523
*8587 TAP_524
*8588 TAP_525
*8589 TAP_526
*8590 TAP_527
*8591 TAP_528
*8592 TAP_529
*8593 TAP_530
*8594 TAP_531
*8595 TAP_532
*8596 TAP_533
*8597 TAP_534
*8598 TAP_535
*8599 TAP_536
*8600 TAP_537
*8601 TAP_538
*8602 TAP_539
*8603 TAP_540
*8604 TAP_541
*8605 TAP_542
*8606 TAP_543
*8607 TAP_544
*8608 TAP_545
*8609 TAP_546
*8610 TAP_547
*8611 TAP_548
*8612 TAP_549
*8613 TAP_550
*8614 TAP_551
*8615 TAP_552
*8616 TAP_553
*8617 TAP_554
*8618 TAP_555
*8619 TAP_556
*8620 TAP_557
*8621 TAP_558
*8622 TAP_559
*8623 TAP_560
*8624 TAP_561
*8625 TAP_562
*8626 TAP_563
*8627 TAP_564
*8628 TAP_565
*8629 TAP_566
*8630 TAP_567
*8631 TAP_568
*8632 TAP_569
*8633 TAP_570
*8634 TAP_571
*8635 TAP_572
*8636 TAP_573
*8637 TAP_574
*8638 TAP_575
*8639 TAP_576
*8640 TAP_577
*8641 TAP_578
*8642 TAP_579
*8643 TAP_580
*8644 TAP_581
*8645 TAP_582
*8646 TAP_583
*8647 TAP_584
*8648 TAP_585
*8649 TAP_586
*8650 TAP_587
*8651 TAP_588
*8652 TAP_589
*8653 TAP_590
*8654 TAP_591
*8655 TAP_592
*8656 TAP_593
*8657 TAP_594
*8658 TAP_595
*8659 TAP_596
*8660 TAP_597
*8661 TAP_598
*8662 TAP_599
*8663 TAP_600
*8664 TAP_601
*8665 TAP_602
*8666 TAP_603
*8667 TAP_604
*8668 TAP_605
*8669 TAP_606
*8670 TAP_607
*8671 TAP_608
*8672 TAP_609
*8673 TAP_610
*8674 TAP_611
*8675 TAP_612
*8676 TAP_613
*8677 TAP_614
*8678 TAP_615
*8679 TAP_616
*8680 TAP_617
*8681 TAP_618
*8682 TAP_619
*8683 TAP_620
*8684 TAP_621
*8685 TAP_622
*8686 TAP_623
*8687 TAP_624
*8688 TAP_625
*8689 TAP_626
*8690 TAP_627
*8691 TAP_628
*8692 TAP_629
*8693 TAP_630
*8694 TAP_631
*8695 TAP_632
*8696 TAP_633
*8697 TAP_634
*8698 TAP_635
*8699 TAP_636
*8700 TAP_637
*8701 TAP_638
*8702 TAP_639
*8703 TAP_640
*8704 TAP_641
*8705 TAP_642
*8706 TAP_643
*8707 TAP_644
*8708 TAP_645
*8709 TAP_646
*8710 TAP_647
*8711 TAP_648
*8712 TAP_649
*8713 TAP_650
*8714 TAP_651
*8715 TAP_652
*8716 TAP_653
*8717 TAP_654
*8718 TAP_655
*8719 TAP_656
*8720 TAP_657
*8721 TAP_658
*8722 TAP_659
*8723 TAP_660
*8724 TAP_661
*8725 TAP_662
*8726 TAP_663
*8727 TAP_664
*8728 TAP_665
*8729 TAP_666
*8730 TAP_667
*8731 TAP_668
*8732 TAP_669
*8733 TAP_670
*8734 TAP_671
*8735 TAP_672
*8736 TAP_673
*8737 TAP_674
*8738 TAP_675
*8739 TAP_676
*8740 TAP_677
*8741 TAP_678
*8742 TAP_679
*8743 TAP_680
*8744 TAP_681
*8745 TAP_682
*8746 TAP_683
*8747 TAP_684
*8748 TAP_685
*8749 TAP_686
*8750 TAP_687
*8751 TAP_688
*8752 TAP_689
*8753 TAP_690
*8754 TAP_691
*8755 TAP_692
*8756 TAP_693
*8757 TAP_694
*8758 TAP_695
*8759 TAP_696
*8760 TAP_697
*8761 TAP_698
*8762 TAP_699
*8763 TAP_700
*8764 TAP_701
*8765 TAP_702
*8766 TAP_703
*8767 TAP_704
*8768 TAP_705
*8769 TAP_706
*8770 TAP_707
*8771 TAP_708
*8772 TAP_709
*8773 TAP_710
*8774 TAP_711
*8775 TAP_712
*8776 TAP_713
*8777 TAP_714
*8778 TAP_715
*8779 TAP_716
*8780 TAP_717
*8781 TAP_718
*8782 TAP_719
*8783 TAP_720
*8784 TAP_721
*8785 TAP_722
*8786 TAP_723
*8787 TAP_724
*8788 TAP_725
*8789 TAP_726
*8790 TAP_727
*8791 TAP_728
*8792 TAP_729
*8793 TAP_730
*8794 TAP_731
*8795 TAP_732
*8796 TAP_733
*8797 TAP_734
*8798 TAP_735
*8799 TAP_736
*8800 TAP_737
*8801 TAP_738
*8802 TAP_739
*8803 TAP_740
*8804 TAP_741
*8805 TAP_742
*8806 TAP_743
*8807 TAP_744
*8808 TAP_745
*8809 TAP_746
*8810 TAP_747
*8811 TAP_748
*8812 TAP_749
*8813 TAP_750
*8814 TAP_751
*8815 TAP_752
*8816 TAP_753
*8817 TAP_754
*8818 TAP_755
*8819 TAP_756
*8820 TAP_757
*8821 TAP_758
*8822 TAP_759
*8823 TAP_760
*8824 TAP_761
*8825 TAP_762
*8826 TAP_763
*8827 TAP_764
*8828 TAP_765
*8829 TAP_766
*8830 TAP_767
*8831 TAP_768
*8832 TAP_769
*8833 TAP_770
*8834 TAP_771
*8835 TAP_772
*8836 TAP_773
*8837 TAP_774
*8838 TAP_775
*8839 TAP_776
*8840 TAP_777
*8841 TAP_778
*8842 TAP_779
*8843 TAP_780
*8844 TAP_781
*8845 TAP_782
*8846 TAP_783
*8847 TAP_784
*8848 TAP_785
*8849 TAP_786
*8850 TAP_787
*8851 TAP_788
*8852 TAP_789
*8853 TAP_790
*8854 TAP_791
*8855 TAP_792
*8856 TAP_793
*8857 TAP_794
*8858 TAP_795
*8859 TAP_796
*8860 TAP_797
*8861 TAP_798
*8862 TAP_799
*8863 TAP_800
*8864 TAP_801
*8865 TAP_802
*8866 TAP_803
*8867 TAP_804
*8868 TAP_805
*8869 TAP_806
*8870 TAP_807
*8871 TAP_808
*8872 TAP_809
*8873 TAP_810
*8874 TAP_811
*8875 TAP_812
*8876 TAP_813
*8877 TAP_814
*8878 TAP_815
*8879 TAP_816
*8880 TAP_817
*8881 TAP_818
*8882 TAP_819
*8883 TAP_820
*8884 TAP_821
*8885 TAP_822
*8886 TAP_823
*8887 TAP_824
*8888 TAP_825
*8889 TAP_826
*8890 TAP_827
*8891 TAP_828
*8892 TAP_829
*8893 TAP_830
*8894 TAP_831
*8895 TAP_832
*8896 TAP_833
*8897 TAP_834
*8898 TAP_835
*8899 TAP_836
*8900 TAP_837
*8901 TAP_838
*8902 TAP_839
*8903 TAP_840
*8904 TAP_841
*8905 TAP_842
*8906 TAP_843
*8907 TAP_844
*8908 TAP_845
*8909 TAP_846
*8910 TAP_847
*8911 TAP_848
*8912 TAP_849
*8913 TAP_850
*8914 TAP_851
*8915 TAP_852
*8916 TAP_853
*8917 TAP_854
*8918 TAP_855
*8919 TAP_856
*8920 TAP_857
*8921 TAP_858
*8922 TAP_859
*8923 TAP_860
*8924 TAP_861
*8925 TAP_862
*8926 TAP_863
*8927 TAP_864
*8928 TAP_865
*8929 TAP_866
*8930 TAP_867
*8931 TAP_868
*8932 TAP_869
*8933 TAP_870
*8934 TAP_871
*8935 TAP_872
*8936 TAP_873
*8937 TAP_874
*8938 TAP_875
*8939 TAP_876
*8940 TAP_877
*8941 TAP_878
*8942 TAP_879
*8943 TAP_880
*8944 TAP_881
*8945 TAP_882
*8946 TAP_883
*8947 TAP_884
*8948 TAP_885
*8949 TAP_886
*8950 TAP_887
*8951 TAP_888
*8952 TAP_889
*8953 TAP_890
*8954 TAP_891
*8955 TAP_892
*8956 TAP_893
*8957 TAP_894
*8958 TAP_895
*8959 TAP_896
*8960 TAP_897
*8961 TAP_898
*8962 TAP_899
*8963 TAP_900
*8964 TAP_901
*8965 TAP_902
*8966 TAP_903
*8967 TAP_904
*8968 TAP_905
*8969 TAP_906
*8970 TAP_907
*8971 TAP_908
*8972 TAP_909
*8973 TAP_910
*8974 TAP_911
*8975 TAP_912
*8976 TAP_913
*8977 TAP_914
*8978 TAP_915
*8979 TAP_916
*8980 TAP_917
*8981 TAP_918
*8982 TAP_919
*8983 TAP_920
*8984 TAP_921
*8985 TAP_922
*8986 TAP_923
*8987 TAP_924
*8988 TAP_925
*8989 TAP_926
*8990 TAP_927
*8991 TAP_928
*8992 TAP_929
*8993 TAP_930
*8994 TAP_931
*8995 TAP_932
*8996 TAP_933
*8997 TAP_934
*8998 TAP_935
*8999 TAP_936
*9000 TAP_937
*9001 TAP_938
*9002 TAP_939
*9003 TAP_940
*9004 TAP_941
*9005 TAP_942
*9006 TAP_943
*9007 TAP_944
*9008 TAP_945
*9009 TAP_946
*9010 TAP_947
*9011 TAP_948
*9012 TAP_949
*9013 TAP_950
*9014 TAP_951
*9015 TAP_952
*9016 TAP_953
*9017 TAP_954
*9018 TAP_955
*9019 TAP_956
*9020 TAP_957
*9021 TAP_958
*9022 TAP_959
*9023 TAP_960
*9024 TAP_961
*9025 TAP_962
*9026 TAP_963
*9027 TAP_964
*9028 TAP_965
*9029 TAP_966
*9030 TAP_967
*9031 TAP_968
*9032 TAP_969
*9033 TAP_970
*9034 TAP_971
*9035 TAP_972
*9036 TAP_973
*9037 TAP_974
*9038 TAP_975
*9039 TAP_976
*9040 TAP_977
*9041 TAP_978
*9042 TAP_979
*9043 TAP_980
*9044 TAP_981
*9045 TAP_982
*9046 TAP_983
*9047 TAP_984
*9048 TAP_985
*9049 TAP_986
*9050 TAP_987
*9051 TAP_988
*9052 TAP_989
*9053 TAP_990
*9054 TAP_991
*9055 TAP_992
*9056 TAP_993
*9057 TAP_994
*9058 TAP_995
*9059 TAP_996
*9060 TAP_997
*9061 TAP_998
*9062 TAP_999
*9063 _0488_
*9064 _0489_
*9065 _0490_
*9066 _0491_
*9067 _0492_
*9068 _0493_
*9069 _0494_
*9070 _0495_
*9071 _0496_
*9072 _0497_
*9073 _0498_
*9074 _0499_
*9075 _0500_
*9076 _0501_
*9077 _0502_
*9078 _0503_
*9079 _0504_
*9080 _0505_
*9081 _0506_
*9082 _0507_
*9083 _0508_
*9084 _0509_
*9085 _0510_
*9086 _0511_
*9087 _0512_
*9088 _0513_
*9089 _0514_
*9090 _0515_
*9091 _0516_
*9092 _0517_
*9093 _0518_
*9094 _0519_
*9095 _0520_
*9096 _0521_
*9097 _0522_
*9098 _0523_
*9099 _0524_
*9100 _0525_
*9101 _0526_
*9102 _0527_
*9103 _0528_
*9104 _0529_
*9105 _0530_
*9106 _0531_
*9107 _0532_
*9108 _0533_
*9109 _0534_
*9110 _0535_
*9111 _0536_
*9112 _0537_
*9113 _0538_
*9114 _0539_
*9115 _0540_
*9116 _0541_
*9117 _0542_
*9118 _0543_
*9119 _0544_
*9120 _0545_
*9121 _0546_
*9122 _0547_
*9123 _0548_
*9124 _0549_
*9125 _0550_
*9126 _0551_
*9127 _0552_
*9128 _0553_
*9129 _0554_
*9130 _0555_
*9131 _0556_
*9132 _0557_
*9133 _0558_
*9134 _0559_
*9135 _0560_
*9136 _0561_
*9137 _0562_
*9138 _0563_
*9139 _0564_
*9140 _0565_
*9141 _0566_
*9142 _0567_
*9143 _0568_
*9144 _0569_
*9145 _0570_
*9146 _0571_
*9147 _0572_
*9148 _0573_
*9149 _0574_
*9150 _0575_
*9151 _0576_
*9152 _0577_
*9153 _0578_
*9154 _0579_
*9155 _0580_
*9156 _0581_
*9157 _0582_
*9158 _0583_
*9159 _0584_
*9160 _0585_
*9161 _0586_
*9162 _0587_
*9163 _0588_
*9164 _0589_
*9165 _0590_
*9166 _0591_
*9167 _0592_
*9168 _0593_
*9169 _0594_
*9170 _0595_
*9171 _0596_
*9172 _0597_
*9173 _0598_
*9174 _0599_
*9175 _0600_
*9176 _0601_
*9177 _0602_
*9178 _0603_
*9179 _0604_
*9180 _0605_
*9181 _0606_
*9182 _0607_
*9183 _0608_
*9184 _0609_
*9185 _0610_
*9186 _0611_
*9187 _0612_
*9188 _0613_
*9189 _0614_
*9190 _0615_
*9191 _0616_
*9192 _0617_
*9193 _0618_
*9194 _0619_
*9195 _0620_
*9196 _0621_
*9197 _0622_
*9198 _0623_
*9199 _0624_
*9200 _0625_
*9201 _0626_
*9202 _0627_
*9203 _0628_
*9204 _0629_
*9205 _0630_
*9206 _0631_
*9207 _0632_
*9208 _0633_
*9209 _0634_
*9210 _0635_
*9211 _0636_
*9212 _0637_
*9213 _0638_
*9214 _0639_
*9215 _0640_
*9216 _0641_
*9217 _0642_
*9218 _0643_
*9219 _0644_
*9220 _0645_
*9221 _0646_
*9222 _0647_
*9223 _0648_
*9224 _0649_
*9225 _0650_
*9226 _0651_
*9227 _0652_
*9228 _0653_
*9229 _0654_
*9230 _0655_
*9231 _0656_
*9232 _0657_
*9233 _0658_
*9234 _0659_
*9235 _0660_
*9236 _0661_
*9237 _0662_
*9238 _0663_
*9239 _0664_
*9240 _0665_
*9241 _0666_
*9242 _0667_
*9243 _0668_
*9244 _0669_
*9245 _0670_
*9246 _0671_
*9247 _0672_
*9248 _0673_
*9249 _0674_
*9250 _0675_
*9251 _0676_
*9252 _0677_
*9253 _0678_
*9254 _0679_
*9255 _0680_
*9256 _0681_
*9257 _0682_
*9258 _0683_
*9259 _0684_
*9260 _0685_
*9261 _0686_
*9262 _0687_
*9263 _0688_
*9264 _0689_
*9265 _0690_
*9266 _0691_
*9267 _0692_
*9268 _0693_
*9269 _0694_
*9270 _0695_
*9271 _0696_
*9272 _0697_
*9273 _0698_
*9274 _0699_
*9275 _0700_
*9276 _0701_
*9277 _0702_
*9278 _0703_
*9279 _0704_
*9280 _0705_
*9281 _0706_
*9282 _0707_
*9283 _0708_
*9284 _0709_
*9285 _0710_
*9286 _0711_
*9287 _0712_
*9288 _0713_
*9289 _0714_
*9290 _0715_
*9291 _0716_
*9292 _0717_
*9293 _0718_
*9294 _0719_
*9295 _0720_
*9296 _0721_
*9297 _0722_
*9298 _0723_
*9299 _0724_
*9300 _0725_
*9301 _0726_
*9302 _0727_
*9303 _0728_
*9304 _0729_
*9305 _0730_
*9306 _0731_
*9307 _0732_
*9308 _0733_
*9309 _0734_
*9310 _0735_
*9311 _0736_
*9312 _0737_
*9313 _0738_
*9314 _0739_
*9315 _0740_
*9316 _0741_
*9317 _0742_
*9318 _0743_
*9319 _0744_
*9320 _0745_
*9321 _0746_
*9322 _0747_
*9323 _0748_
*9324 _0749_
*9325 _0750_
*9326 _0751_
*9327 _0752_
*9328 _0753_
*9329 _0754_
*9330 _0755_
*9331 _0756_
*9332 _0757_
*9333 _0758_
*9334 _0759_
*9335 _0760_
*9336 _0761_
*9337 _0762_
*9338 _0763_
*9339 _0764_
*9340 _0765_
*9341 _0766_
*9342 _0767_
*9343 _0768_
*9344 _0769_
*9345 _0770_
*9346 _0771_
*9347 _0772_
*9348 _0773_
*9349 _0774_
*9350 _0775_
*9351 _0776_
*9352 _0777_
*9353 _0778_
*9354 _0779_
*9355 _0780_
*9356 _0781_
*9357 _0782_
*9358 _0783_
*9359 _0784_
*9360 _0785_
*9361 _0786_
*9362 _0787_
*9363 _0788_
*9364 _0789_
*9365 _0790_
*9366 _0791_
*9367 _0792_
*9368 _0793_
*9369 _0794_
*9370 _0795_
*9371 _0796_
*9372 _0797_
*9373 _0798_
*9374 _0799_
*9375 _0800_
*9376 _0801_
*9377 _0802_
*9378 _0803_
*9379 _0804_
*9380 _0805_
*9381 _0806_
*9382 _0807_
*9383 _0808_
*9384 _0809_
*9385 _0810_
*9386 _0811_
*9387 _0812_
*9388 _0813_
*9389 _0814_
*9390 _0815_
*9391 _0816_
*9392 _0817_
*9393 _0818_
*9394 _0819_
*9395 _0820_
*9396 _0821_
*9397 _0822_
*9398 _0823_
*9399 _0824_
*9400 _0825_
*9401 _0826_
*9402 _0827_
*9403 _0828_
*9404 _0829_
*9405 _0830_
*9406 _0831_
*9407 _0832_
*9408 _0833_
*9409 _0834_
*9410 _0835_
*9411 _0836_
*9412 _0837_
*9413 _0838_
*9414 _0839_
*9415 _0840_
*9416 _0841_
*9417 _0842_
*9418 _0843_
*9419 _0844_
*9420 _0845_
*9421 _0846_
*9422 _0847_
*9423 _0848_
*9424 _0849_
*9425 _0850_
*9426 _0851_
*9427 _0852_
*9428 _0853_
*9429 _0854_
*9430 _0855_
*9431 _0856_
*9432 _0857_
*9433 _0858_
*9434 _0859_
*9435 _0860_
*9436 _0861_
*9437 _0862_
*9438 _0863_
*9439 _0864_
*9440 _0865_
*9441 _0866_
*9442 _0867_
*9443 _0868_
*9444 _0869_
*9445 _0870_
*9446 _0871_
*9447 _0872_
*9448 _0873_
*9449 _0874_
*9450 _0875_
*9451 _0876_
*9452 _0877_
*9453 _0878_
*9454 _0879_
*9455 _0880_
*9456 _0881_
*9457 _0882_
*9458 _0883_
*9459 _0884_
*9460 _0885_
*9461 _0886_
*9462 _0887_
*9463 _0888_
*9464 _0889_
*9465 _0890_
*9466 _0891_
*9467 _0892_
*9468 _0893_
*9469 _0894_
*9470 _0895_
*9471 _0896_
*9472 _0897_
*9473 _0898_
*9474 _0899_
*9475 _0900_
*9476 _0901_
*9477 _0902_
*9478 _0903_
*9479 _0904_
*9480 _0905_
*9481 _0906_
*9482 _0907_
*9483 _0908_
*9484 _0909_
*9485 _0910_
*9486 _0911_
*9487 _0912_
*9488 _0913_
*9489 _0914_
*9490 _0915_
*9491 _0916_
*9492 _0917_
*9493 _0918_
*9494 _0919_
*9495 _0920_
*9496 _0921_
*9497 _0922_
*9498 _0923_
*9499 _0924_
*9500 _0925_
*9501 _0926_
*9502 _0927_
*9503 _0928_
*9504 _0929_
*9505 _0930_
*9506 _0931_
*9507 _0932_
*9508 _0933_
*9509 _0934_
*9510 _0935_
*9511 _0936_
*9512 _0937_
*9513 _0938_
*9514 _0939_
*9515 _0940_
*9516 _0941_
*9517 _0942_
*9518 _0943_
*9519 _0944_
*9520 _0945_
*9521 _0946_
*9522 _0947_
*9523 _0948_
*9524 _0949_
*9525 _0950_
*9526 _0951_
*9527 _0952_
*9528 _0953_
*9529 _0954_
*9530 _0955_
*9531 _0956_
*9532 _0957_
*9533 _0958_
*9534 _0959_
*9535 _0960_
*9536 _0961_
*9537 _0962_
*9538 _0963_
*9539 _0964_
*9540 _0965_
*9541 _0966_
*9542 _0967_
*9543 _0968_
*9544 _0969_
*9545 _0970_
*9546 _0971_
*9547 _0972_
*9548 _0973_
*9549 _0974_
*9550 _0975_
*9551 _0976_
*9552 _0977_
*9553 _0978_
*9554 _0979_
*9555 _0980_
*9556 _0981_
*9557 _0982_
*9558 _0983_
*9559 _0984_
*9560 _0985_
*9561 _0986_
*9562 _0987_
*9563 _0988_
*9564 _0989_
*9565 _0990_
*9566 _0991_
*9567 _0992_
*9568 _0993_
*9569 _0994_
*9570 _0995_
*9571 _0996_
*9572 _0997_
*9573 _0998_
*9574 _0999_
*9575 _1000_
*9576 _1001_
*9577 _1002_
*9578 _1003_
*9579 _1004_
*9580 _1005_
*9581 _1006_
*9582 _1007_
*9583 _1008_
*9584 _1009_
*9585 _1010_
*9586 _1011_
*9587 _1012_
*9588 _1013_
*9589 _1014_
*9590 _1015_
*9591 _1016_
*9592 _1017_
*9593 _1018_
*9594 _1019_
*9595 _1020_
*9596 _1021_
*9597 _1022_
*9598 _1023_
*9599 _1024_
*9600 _1025_
*9601 _1026_
*9602 _1027_
*9603 _1028_
*9604 _1029_
*9605 _1030_
*9606 _1031_
*9607 _1032_
*9608 _1033_
*9609 _1034_
*9610 _1035_
*9611 _1036_
*9612 _1037_
*9613 _1038_
*9614 _1039_
*9615 _1040_
*9616 _1041_
*9617 _1042_
*9618 _1043_
*9619 _1044_
*9620 _1045_
*9621 _1046_
*9622 _1047_
*9623 _1048_
*9624 _1049_
*9625 _1050_
*9626 _1051_
*9627 _1052_
*9628 _1053_
*9629 _1054_
*9630 _1055_
*9631 _1056_
*9632 _1057_
*9633 _1058_
*9634 _1059_
*9635 _1060_
*9636 _1061_
*9637 _1062_
*9638 _1063_
*9639 _1064_
*9640 _1065_
*9641 _1066_
*9642 _1067_
*9643 _1068_
*9644 _1069_
*9645 _1070_
*9646 _1071_
*9647 _1072_
*9648 _1073_
*9649 _1074_
*9650 _1075_
*9651 _1076_
*9652 _1077_
*9653 _1078_
*9654 _1079_
*9655 _1080_
*9656 _1081_
*9657 _1082_
*9658 _1083_
*9659 _1084_
*9660 _1085_
*9661 _1086_
*9662 _1087_
*9663 _1088_
*9664 _1089_
*9665 _1090_
*9666 _1091_
*9667 _1092_
*9668 _1093_
*9669 _1094_
*9670 _1095_
*9671 _1096_
*9672 _1097_
*9673 _1098_
*9674 _1099_
*9675 _1100_
*9676 _1101_
*9677 _1102_
*9678 _1103_
*9679 _1104_
*9680 _1105_
*9681 _1106_
*9682 _1107_
*9683 _1108_
*9684 _1109_
*9685 _1110_
*9686 _1111_
*9687 _1112_
*9688 _1113_
*9689 _1114_
*9690 _1115_
*9691 _1116_
*9692 _1117_
*9693 _1118_
*9694 _1119_
*9695 _1120_
*9696 _1121_
*9697 _1122_
*9698 _1123_
*9699 _1124_
*9700 _1125_
*9701 _1126_
*9702 _1127_
*9703 _1128_
*9704 _1129_
*9705 _1130_
*9706 _1131_
*9707 _1132_
*9708 _1133_
*9709 _1134_
*9710 _1135_
*9711 _1136_
*9712 _1137_
*9713 _1138_
*9714 _1139_
*9715 _1140_
*9716 _1141_
*9717 _1142_
*9718 _1143_
*9719 _1144_
*9720 _1145_
*9721 _1146_
*9722 _1155_
*9723 clkbuf_0_clk
*9724 clkbuf_4_0_0_clk
*9725 clkbuf_4_10_0_clk
*9726 clkbuf_4_11_0_clk
*9727 clkbuf_4_12_0_clk
*9728 clkbuf_4_13_0_clk
*9729 clkbuf_4_14_0_clk
*9730 clkbuf_4_15_0_clk
*9731 clkbuf_4_1_0_clk
*9732 clkbuf_4_2_0_clk
*9733 clkbuf_4_3_0_clk
*9734 clkbuf_4_4_0_clk
*9735 clkbuf_4_5_0_clk
*9736 clkbuf_4_6_0_clk
*9737 clkbuf_4_7_0_clk
*9738 clkbuf_4_8_0_clk
*9739 clkbuf_4_9_0_clk
*9740 diode_dout29
*9741 diode_dout29_67
*9742 diode_dout5
*9743 diode_mosi
*9744 fanout56
*9745 fanout57
*9746 fanout58
*9747 fanout59
*9748 fanout60
*9749 fanout61
*9750 fanout62
*9751 fanout63
*9752 fanout64
*9753 fanout65
*9754 fanout66
*9755 hold1
*9756 hold10
*9757 hold11
*9758 hold12
*9759 hold13
*9760 hold14
*9761 hold15
*9762 hold16
*9763 hold17
*9764 hold18
*9765 hold19
*9766 hold2
*9767 hold20
*9768 hold21
*9769 hold22
*9770 hold23
*9771 hold24
*9772 hold25
*9773 hold26
*9774 hold27
*9775 hold28
*9776 hold29
*9777 hold3
*9778 hold30
*9779 hold31
*9780 hold32
*9781 hold33
*9782 hold34
*9783 hold35
*9784 hold36
*9785 hold37
*9786 hold38
*9787 hold39
*9788 hold4
*9789 hold40
*9790 hold41
*9791 hold42
*9792 hold43
*9793 hold44
*9794 hold45
*9795 hold46
*9796 hold47
*9797 hold48
*9798 hold49
*9799 hold5
*9800 hold50
*9801 hold51
*9802 hold52
*9803 hold53
*9804 hold54
*9805 hold55
*9806 hold56
*9807 hold57
*9808 hold58
*9809 hold59
*9810 hold6
*9811 hold60
*9812 hold61
*9813 hold62
*9814 hold63
*9815 hold64
*9816 hold65
*9817 hold66
*9818 hold67
*9819 hold68
*9820 hold69
*9821 hold7
*9822 hold70
*9823 hold71
*9824 hold72
*9825 hold73
*9826 hold74
*9827 hold75
*9828 hold76
*9829 hold77
*9830 hold78
*9831 hold79
*9832 hold8
*9833 hold80
*9834 hold81
*9835 hold82
*9836 hold83
*9837 hold84
*9838 hold85
*9839 hold86
*9840 hold87
*9841 hold88
*9842 hold89
*9843 hold9
*9844 hold90
*9845 hold91
*9846 hold92
*9847 hold93
*9848 input1
*9849 input10
*9850 input11
*9851 input12
*9852 input13
*9853 input14
*9854 input15
*9855 input16
*9856 input17
*9857 input2
*9858 input3
*9859 input4
*9860 input5
*9861 input6
*9862 input7
*9863 input8
*9864 input9
*9865 max_cap52
*9866 max_cap53
*9867 max_cap54
*9868 max_cap55
*9869 output18
*9870 output19
*9871 output20
*9872 output21
*9873 output22
*9874 output23
*9875 output24
*9876 output25
*9877 output26
*9878 output27
*9879 output28
*9880 output29
*9881 output30
*9882 output31
*9883 output32
*9884 output33
*9885 output34
*9886 output35
*9887 output36
*9888 output37
*9889 output38
*9890 output39
*9891 output40
*9892 output41
*9893 output42
*9894 output43
*9895 output44
*9896 output45
*9897 output46
*9898 output47
*9899 output48
*9900 output49
*9901 output50
*9902 output51
*9903 tqvp_spi_traffic4_68
*9904 tqvp_spi_traffic4_69
*9905 tqvp_spi_traffic4_70
*9906 tqvp_spi_traffic4_71
*9907 tqvp_spi_traffic4_72
*9908 tqvp_spi_traffic4_73
*9909 tqvp_spi_traffic4_74

*PORTS
address[0] I
address[1] I
address[2] I
address[3] I
address[4] I
address[5] I
clk I
data_in[0] I
data_in[10] I
data_in[11] I
data_in[12] I
data_in[13] I
data_in[14] I
data_in[15] I
data_in[16] I
data_in[17] I
data_in[18] I
data_in[19] I
data_in[1] I
data_in[20] I
data_in[21] I
data_in[22] I
data_in[23] I
data_in[24] I
data_in[25] I
data_in[26] I
data_in[27] I
data_in[28] I
data_in[29] I
data_in[2] I
data_in[30] I
data_in[31] I
data_in[3] I
data_in[4] I
data_in[5] I
data_in[6] I
data_in[7] I
data_in[8] I
data_in[9] I
data_out[0] O
data_out[10] O
data_out[11] O
data_out[12] O
data_out[13] O
data_out[14] O
data_out[15] O
data_out[16] O
data_out[17] O
data_out[18] O
data_out[19] O
data_out[1] O
data_out[20] O
data_out[21] O
data_out[22] O
data_out[23] O
data_out[24] O
data_out[25] O
data_out[26] O
data_out[27] O
data_out[28] O
data_out[29] O
data_out[2] O
data_out[30] O
data_out[31] O
data_out[3] O
data_out[4] O
data_out[5] O
data_out[6] O
data_out[7] O
data_out[8] O
data_out[9] O
data_read_n[0] I
data_read_n[1] I
data_ready I
data_write_n[0] I
data_write_n[1] I
rst_n I
ui_in[0] I
ui_in[1] I
ui_in[2] I
ui_in[3] I
ui_in[4] I
ui_in[5] I
ui_in[6] I
ui_in[7] I
uo_out[0] O
uo_out[1] O
uo_out[2] O
uo_out[3] O
uo_out[4] O
uo_out[5] O
uo_out[6] O
uo_out[7] O
user_interrupt O

*D_NET *5 0.000813598
*CONN
*P address[2] I
*I *9848:A I *D sky130_fd_sc_hd__buf_2
*CAP
1 address[2] 0.000406799
2 *9848:A 0.000406799
*RES
1 address[2] *9848:A 21.9607 
*END

*D_NET *6 0.000591129
*CONN
*P address[3] I
*I *9857:A I *D sky130_fd_sc_hd__buf_2
*CAP
1 address[3] 0.000295565
2 *9857:A 0.000295565
*RES
1 address[3] *9857:A 21.1554 
*END

*D_NET *7 0.00147359
*CONN
*P address[4] I
*I *9858:A I *D sky130_fd_sc_hd__clkbuf_2
*CAP
1 address[4] 0.000736796
2 *9858:A 0.000736796
*RES
1 address[4] *9858:A 27.6929 
*END

*D_NET *8 0.000704339
*CONN
*P address[5] I
*I *9859:A I *D sky130_fd_sc_hd__clkbuf_2
*CAP
1 address[5] 0.00035217
2 *9859:A 0.00035217
3 *9859:A *720:10 0
*RES
1 address[5] *9859:A 21.656 
*END

*D_NET *9 0.0327466
*CONN
*P clk I
*I *9723:A I *D sky130_fd_sc_hd__clkbuf_16
*CAP
1 clk 0.00965012
2 *9723:A 0.00592332
3 *9:5 0.0155734
4 *9723:A *348:171 2.02346e-07
5 *9723:A *391:26 0.00158056
6 *9723:A *405:69 6.80387e-06
7 *9723:A *792:49 1.21859e-05
8 *9723:A *897:82 0
*RES
1 clk *9:5 177.955 
2 *9:5 *9723:A 35.0689 
*END

*D_NET *10 0.000654029
*CONN
*P data_in[0] I
*I *9860:A I *D sky130_fd_sc_hd__buf_2
*CAP
1 data_in[0] 0.000327015
2 *9860:A 0.000327015
3 *9860:A *664:14 0
4 *9860:A *731:10 0
*RES
1 data_in[0] *9860:A 21.4239 
*END

*D_NET *21 0.000548557
*CONN
*P data_in[1] I
*I *9861:A I *D sky130_fd_sc_hd__clkbuf_4
*CAP
1 data_in[1] 0.000274278
2 *9861:A 0.000274278
3 *9861:A *664:8 0
*RES
1 data_in[1] *9861:A 20.0132 
*END

*D_NET *32 0.00109791
*CONN
*P data_in[2] I
*I *9862:A I *D sky130_fd_sc_hd__buf_2
*CAP
1 data_in[2] 0.000405141
2 *9862:A 0.000405141
3 *9862:A data_out[5] 0.000186669
4 *9862:A *9893:A 0.00010096
*RES
1 data_in[2] *9862:A 23.281 
*END

*D_NET *35 0.000905755
*CONN
*P data_in[3] I
*I *9863:A I *D sky130_fd_sc_hd__buf_2
*CAP
1 data_in[3] 0.000443232
2 *9863:A 0.000443232
3 *9863:A *757:8 1.92905e-05
*RES
1 data_in[3] *9863:A 22.4429 
*END

*D_NET *42 0.000483147
*CONN
*P data_out[0] O
*I *9869:X O *D sky130_fd_sc_hd__clkbuf_4
*CAP
1 data_out[0] 0.000230225
2 *9869:X 0.000230225
3 data_out[0] *664:8 2.26973e-05
*RES
1 *9869:X data_out[0] 18.1949 
*END

*D_NET *43 0.000976142
*CONN
*P data_out[10] O
*I *9870:X O *D sky130_fd_sc_hd__clkbuf_4
*CAP
1 data_out[10] 0.000452682
2 *9870:X 0.000452682
3 data_out[10] *9870:A 5.33433e-05
4 data_out[10] *751:12 1.74352e-05
*RES
1 *9870:X data_out[10] 22.05 
*END

*D_NET *44 0.000649212
*CONN
*P data_out[11] O
*I *9871:X O *D sky130_fd_sc_hd__clkbuf_4
*CAP
1 data_out[11] 0.000324606
2 *9871:X 0.000324606
3 data_out[11] *700:12 0
*RES
1 *9871:X data_out[11] 18.9901 
*END

*D_NET *45 0.000654824
*CONN
*P data_out[12] O
*I *9872:X O *D sky130_fd_sc_hd__clkbuf_4
*CAP
1 data_out[12] 0.000327412
2 *9872:X 0.000327412
*RES
1 *9872:X data_out[12] 21.4589 
*END

*D_NET *46 0.00169748
*CONN
*P data_out[13] O
*I *9873:X O *D sky130_fd_sc_hd__clkbuf_4
*CAP
1 data_out[13] 0.000673307
2 *9873:X 0.000673307
3 data_out[13] *9873:A 3.55552e-05
4 data_out[13] *696:30 0.000221665
5 data_out[13] *742:8 9.3643e-05
*RES
1 *9873:X data_out[13] 24.4487 
*END

*D_NET *47 0.00065481
*CONN
*P data_out[14] O
*I *9874:X O *D sky130_fd_sc_hd__clkbuf_4
*CAP
1 data_out[14] 0.000327405
2 *9874:X 0.000327405
*RES
1 *9874:X data_out[14] 21.4589 
*END

*D_NET *48 0.00134521
*CONN
*P data_out[15] O
*I *9875:X O *D sky130_fd_sc_hd__clkbuf_4
*CAP
1 data_out[15] 0.000601179
2 *9875:X 0.000601179
3 data_out[15] *9875:A 0.000129595
4 data_out[15] *709:6 1.32552e-05
*RES
1 *9875:X data_out[15] 24.2286 
*END

*D_NET *49 0.000700258
*CONN
*P data_out[16] O
*I *9876:X O *D sky130_fd_sc_hd__clkbuf_4
*CAP
1 data_out[16] 0.000350129
2 *9876:X 0.000350129
*RES
1 *9876:X data_out[16] 20.6929 
*END

*D_NET *50 0.000835539
*CONN
*P data_out[17] O
*I *9877:X O *D sky130_fd_sc_hd__clkbuf_4
*CAP
1 data_out[17] 0.000417769
2 *9877:X 0.000417769
*RES
1 *9877:X data_out[17] 22.175 
*END

*D_NET *51 0.00160121
*CONN
*P data_out[18] O
*I *9878:X O *D sky130_fd_sc_hd__clkbuf_4
*CAP
1 data_out[18] 0.000800604
2 *9878:X 0.000800604
*RES
1 *9878:X data_out[18] 27.9964 
*END

*D_NET *52 0.000933679
*CONN
*P data_out[19] O
*I *9879:X O *D sky130_fd_sc_hd__clkbuf_4
*CAP
1 data_out[19] 0.00046684
2 *9879:X 0.00046684
*RES
1 *9879:X data_out[19] 22.2464 
*END

*D_NET *53 0.000700258
*CONN
*P data_out[1] O
*I *9880:X O *D sky130_fd_sc_hd__clkbuf_4
*CAP
1 data_out[1] 0.000350129
2 *9880:X 0.000350129
*RES
1 *9880:X data_out[1] 20.6929 
*END

*D_NET *54 0.000700258
*CONN
*P data_out[20] O
*I *9881:X O *D sky130_fd_sc_hd__clkbuf_4
*CAP
1 data_out[20] 0.000350129
2 *9881:X 0.000350129
*RES
1 *9881:X data_out[20] 20.6929 
*END

*D_NET *55 0.00129618
*CONN
*P data_out[21] O
*I *9882:X O *D sky130_fd_sc_hd__clkbuf_4
*CAP
1 data_out[21] 0.000599681
2 *9882:X 0.000599681
3 data_out[21] *709:6 9.68208e-05
*RES
1 *9882:X data_out[21] 24.2286 
*END

*D_NET *56 0.000683837
*CONN
*P data_out[22] O
*I *9883:X O *D sky130_fd_sc_hd__clkbuf_4
*CAP
1 data_out[22] 0.000320436
2 *9883:X 0.000320436
3 data_out[22] *731:14 4.29654e-05
*RES
1 *9883:X data_out[22] 19.8729 
*END

*D_NET *57 0.000538472
*CONN
*P data_out[23] O
*I *9884:X O *D sky130_fd_sc_hd__buf_2
*CAP
1 data_out[23] 0.000269236
2 *9884:X 0.000269236
3 data_out[23] *716:10 0
*RES
1 *9884:X data_out[23] 18.8021 
*END

*D_NET *58 0.000679275
*CONN
*P data_out[24] O
*I *9885:X O *D sky130_fd_sc_hd__clkbuf_4
*CAP
1 data_out[24] 0.000339637
2 *9885:X 0.000339637
*RES
1 *9885:X data_out[24] 20.9589 
*END

*D_NET *59 0.000556462
*CONN
*P data_out[25] O
*I *9886:X O *D sky130_fd_sc_hd__clkbuf_4
*CAP
1 data_out[25] 0.000278231
2 *9886:X 0.000278231
*RES
1 *9886:X data_out[25] 20.3518 
*END

*D_NET *60 0.000921593
*CONN
*P data_out[26] O
*I *9887:X O *D sky130_fd_sc_hd__buf_2
*CAP
1 data_out[26] 0.000460796
2 *9887:X 0.000460796
*RES
1 *9887:X data_out[26] 19.0903 
*END

*D_NET *61 0.000996326
*CONN
*P data_out[27] O
*I *9888:X O *D sky130_fd_sc_hd__clkbuf_4
*CAP
1 data_out[27] 0.000447683
2 *9888:X 0.000447683
3 data_out[27] *9879:A 0.00010096
*RES
1 *9888:X data_out[27] 22.2464 
*END

*D_NET *62 0.000751907
*CONN
*P data_out[28] O
*I *9889:X O *D sky130_fd_sc_hd__clkbuf_4
*CAP
1 data_out[28] 0.000375954
2 *9889:X 0.000375954
3 data_out[28] *720:10 0
*RES
1 *9889:X data_out[28] 21.6911 
*END

*D_NET *63 0.000687406
*CONN
*P data_out[29] O
*I *9903:LO O *D sky130_fd_sc_hd__conb_1
*CAP
1 data_out[29] 0.000343703
2 *9903:LO 0.000343703
3 data_out[29] *700:12 0
*RES
1 *9903:LO data_out[29] 18.84 
*END

*D_NET *64 0.00101541
*CONN
*P data_out[2] O
*I *9890:X O *D sky130_fd_sc_hd__clkbuf_4
*CAP
1 data_out[2] 0.000500686
2 *9890:X 0.000500686
3 data_out[2] *709:6 1.40415e-05
*RES
1 *9890:X data_out[2] 24.5857 
*END

*D_NET *65 0.000413536
*CONN
*P data_out[30] O
*I *9904:LO O *D sky130_fd_sc_hd__conb_1
*CAP
1 data_out[30] 0.000200339
2 *9904:LO 0.000200339
3 data_out[30] *664:8 1.28585e-05
*RES
1 *9904:LO data_out[30] 18.1229 
*END

*D_NET *66 0.000668671
*CONN
*P data_out[31] O
*I *9905:LO O *D sky130_fd_sc_hd__conb_1
*CAP
1 data_out[31] 0.000334336
2 *9905:LO 0.000334336
*RES
1 *9905:LO data_out[31] 21.7625 
*END

*D_NET *67 0.000933679
*CONN
*P data_out[3] O
*I *9891:X O *D sky130_fd_sc_hd__clkbuf_4
*CAP
1 data_out[3] 0.00046684
2 *9891:X 0.00046684
*RES
1 *9891:X data_out[3] 22.2464 
*END

*D_NET *68 0.000700258
*CONN
*P data_out[4] O
*I *9892:X O *D sky130_fd_sc_hd__clkbuf_4
*CAP
1 data_out[4] 0.000350129
2 *9892:X 0.000350129
*RES
1 *9892:X data_out[4] 20.6929 
*END

*D_NET *69 0.0015524
*CONN
*P data_out[5] O
*I *9893:X O *D sky130_fd_sc_hd__clkbuf_4
*CAP
1 data_out[5] 0.000682866
2 *9893:X 0.000682866
3 *9862:A data_out[5] 0.000186669
*RES
1 *9893:X data_out[5] 27.2821 
*END

*D_NET *70 0.000976142
*CONN
*P data_out[6] O
*I *9894:X O *D sky130_fd_sc_hd__clkbuf_4
*CAP
1 data_out[6] 0.000452682
2 *9894:X 0.000452682
3 data_out[6] *9894:A 5.33433e-05
4 data_out[6] *751:12 1.74352e-05
*RES
1 *9894:X data_out[6] 22.05 
*END

*D_NET *71 0.000933679
*CONN
*P data_out[7] O
*I *9895:X O *D sky130_fd_sc_hd__clkbuf_4
*CAP
1 data_out[7] 0.00046684
2 *9895:X 0.00046684
*RES
1 *9895:X data_out[7] 22.2464 
*END

*D_NET *72 0.00103828
*CONN
*P data_out[8] O
*I *9896:X O *D sky130_fd_sc_hd__clkbuf_4
*CAP
1 data_out[8] 0.000491622
2 *9896:X 0.000491622
3 data_out[8] *9896:A 5.50313e-05
*RES
1 *9896:X data_out[8] 22.6571 
*END

*D_NET *73 0.000697403
*CONN
*P data_out[9] O
*I *9897:X O *D sky130_fd_sc_hd__clkbuf_4
*CAP
1 data_out[9] 0.000348702
2 *9897:X 0.000348702
3 data_out[9] *9897:A 0
*RES
1 *9897:X data_out[9] 20.9589 
*END

*D_NET *74 0.00074191
*CONN
*P data_read_n[0] I
*I *9864:A I *D sky130_fd_sc_hd__clkbuf_2
*CAP
1 data_read_n[0] 0.000370955
2 *9864:A 0.000370955
3 *9864:A *700:12 0
*RES
1 data_read_n[0] *9864:A 19.2157 
*END

*D_NET *75 0.000775417
*CONN
*P data_read_n[1] I
*I *9849:A I *D sky130_fd_sc_hd__clkbuf_2
*CAP
1 data_read_n[1] 0.000387709
2 *9849:A 0.000387709
3 *9849:A *700:12 0
*RES
1 data_read_n[1] *9849:A 18.9121 
*END

*D_NET *77 0.00100853
*CONN
*P data_write_n[0] I
*I *9850:A I *D sky130_fd_sc_hd__buf_1
*CAP
1 data_write_n[0] 0.000504265
2 *9850:A 0.000504265
3 *9850:A *9853:A 0
*RES
1 data_write_n[0] *9850:A 23.3893 
*END

*D_NET *78 0.000910769
*CONN
*P data_write_n[1] I
*I *9851:A I *D sky130_fd_sc_hd__buf_1
*CAP
1 data_write_n[1] 0.000455384
2 *9851:A 0.000455384
*RES
1 data_write_n[1] *9851:A 22.5679 
*END

*D_NET *79 0.000826448
*CONN
*P rst_n I
*I *9852:A I *D sky130_fd_sc_hd__buf_1
*CAP
1 rst_n 0.000413224
2 *9852:A 0.000413224
*RES
1 rst_n *9852:A 21.9607 
*END

*D_NET *80 0.00103448
*CONN
*P ui_in[0] I
*I *9853:A I *D sky130_fd_sc_hd__clkbuf_2
*CAP
1 ui_in[0] 0.000517241
2 *9853:A 0.000517241
3 *9853:A *9878:A 0
4 *9850:A *9853:A 0
*RES
1 ui_in[0] *9853:A 24.5667 
*END

*D_NET *81 0.000493063
*CONN
*P ui_in[1] I
*I *9854:A I *D sky130_fd_sc_hd__dlymetal6s2s_1
*CAP
1 ui_in[1] 0.000233196
2 *9854:A 0.000233196
3 *9854:A *675:10 2.667e-05
*RES
1 ui_in[1] *9854:A 18.73 
*END

*D_NET *82 0.000620836
*CONN
*P ui_in[2] I
*I *9855:A I *D sky130_fd_sc_hd__buf_1
*CAP
1 ui_in[2] 0.000310418
2 *9855:A 0.000310418
*RES
1 ui_in[2] *9855:A 21.4589 
*END

*D_NET *83 0.000666147
*CONN
*P ui_in[3] I
*I *9856:A I *D sky130_fd_sc_hd__buf_1
*CAP
1 ui_in[3] 0.000333074
2 *9856:A 0.000333074
3 *9856:A *700:12 0
*RES
1 ui_in[3] *9856:A 19.0371 
*END

*D_NET *88 0.000700258
*CONN
*P uo_out[0] O
*I *9898:X O *D sky130_fd_sc_hd__clkbuf_4
*CAP
1 uo_out[0] 0.000350129
2 *9898:X 0.000350129
*RES
1 *9898:X uo_out[0] 20.6929 
*END

*D_NET *89 0.00102662
*CONN
*P uo_out[1] O
*I *9899:X O *D sky130_fd_sc_hd__clkbuf_4
*CAP
1 uo_out[1] 0.00048516
2 *9899:X 0.00048516
3 uo_out[1] *9899:A 5.62995e-05
*RES
1 *9899:X uo_out[1] 22.6571 
*END

*D_NET *90 0.000933679
*CONN
*P uo_out[2] O
*I *9900:X O *D sky130_fd_sc_hd__clkbuf_4
*CAP
1 uo_out[2] 0.00046684
2 *9900:X 0.00046684
*RES
1 *9900:X uo_out[2] 22.2464 
*END

*D_NET *91 0.000933679
*CONN
*P uo_out[3] O
*I *9901:X O *D sky130_fd_sc_hd__clkbuf_4
*CAP
1 uo_out[3] 0.00046684
2 *9901:X 0.00046684
*RES
1 *9901:X uo_out[3] 22.2464 
*END

*D_NET *92 0.000937857
*CONN
*P uo_out[4] O
*I *9906:LO O *D sky130_fd_sc_hd__conb_1
*CAP
1 uo_out[4] 0.000441314
2 *9906:LO 0.000441314
3 uo_out[4] *9879:A 5.52302e-05
*RES
1 *9906:LO uo_out[4] 22.4429 
*END

*D_NET *93 0.000826448
*CONN
*P uo_out[5] O
*I *9907:LO O *D sky130_fd_sc_hd__conb_1
*CAP
1 uo_out[5] 0.000413224
2 *9907:LO 0.000413224
*RES
1 *9907:LO uo_out[5] 21.9607 
*END

*D_NET *94 0.000609258
*CONN
*P uo_out[6] O
*I *9908:LO O *D sky130_fd_sc_hd__conb_1
*CAP
1 uo_out[6] 0.000304629
2 *9908:LO 0.000304629
*RES
1 *9908:LO uo_out[6] 21.1554 
*END

*D_NET *95 0.0004315
*CONN
*P uo_out[7] O
*I *9909:LO O *D sky130_fd_sc_hd__conb_1
*CAP
1 uo_out[7] 0.00021575
2 *9909:LO 0.00021575
*RES
1 *9909:LO uo_out[7] 18.1229 
*END

*D_NET *96 0.000709734
*CONN
*P user_interrupt O
*I *9902:X O *D sky130_fd_sc_hd__clkbuf_4
*CAP
1 user_interrupt 0.000316443
2 *9902:X 0.000316443
3 user_interrupt *731:10 7.68486e-05
*RES
1 *9902:X user_interrupt 20.1764 
*END

*D_NET *97 0.0018315
*CONN
*I *9585:D I *D sky130_fd_sc_hd__dfrtp_4
*I *9325:X O *D sky130_fd_sc_hd__a21o_1
*CAP
1 *9585:D 0.00060873
2 *9325:X 0.00060873
3 *9585:D *744:82 0
4 *9585:D *744:149 0
5 *9585:D *749:52 0.000614039
*RES
1 *9325:X *9585:D 36.3321 
*END

*D_NET *98 0.0018574
*CONN
*I *9331:A I *D sky130_fd_sc_hd__or2_1
*I *9718:D I *D sky130_fd_sc_hd__dfrtp_1
*I *9065:Y O *D sky130_fd_sc_hd__nor2_1
*CAP
1 *9331:A 0.000243048
2 *9718:D 0.000277522
3 *9065:Y 0.000130158
4 *98:10 0.000650728
5 *9331:A *9331:B 0.000188586
6 *9331:A *9332:A 0.000113298
7 *9331:A *730:66 5.33005e-05
8 *9718:D *9331:B 0
9 *9718:D *9583:CLK 0
10 *9718:D *730:66 3.17163e-05
11 *9718:D *730:72 7.6644e-05
12 *98:10 *9065:B 1.15172e-05
13 *98:10 *9330:A1 6.05161e-06
14 *98:10 *9331:B 0
15 *98:10 *730:66 7.48356e-05
*RES
1 *9065:Y *98:10 16.2821 
2 *98:10 *9718:D 17.6393 
3 *98:10 *9331:A 18.8714 
*END

*D_NET *99 0.0014216
*CONN
*I *9639:D I *D sky130_fd_sc_hd__dfrtp_1
*I *9160:Y O *D sky130_fd_sc_hd__inv_2
*CAP
1 *9639:D 0.000608019
2 *9160:Y 0.000608019
3 *9639:D *369:104 1.19309e-05
4 *9639:D *596:21 0.000193631
5 *9639:D *812:12 0
*RES
1 *9160:Y *9639:D 39.35 
*END

*D_NET *100 0.00248762
*CONN
*I *9672:D I *D sky130_fd_sc_hd__dfrtp_4
*I *9580:A2 I *D sky130_fd_sc_hd__o21a_1
*I *9321:Y O *D sky130_fd_sc_hd__inv_2
*CAP
1 *9672:D 0.000206175
2 *9580:A2 0.000493214
3 *9321:Y 0.00010265
4 *100:6 0.000802038
5 *9580:A2 *9580:A1 0.00046149
6 *9580:A2 *276:40 2.45748e-05
7 *9580:A2 *597:68 6.44449e-05
8 *9580:A2 *597:80 3.92757e-05
9 *9580:A2 *740:67 9.41642e-05
10 *9580:A2 *794:18 0
11 *9672:D *9672:CLK 7.77751e-05
12 *9672:D *796:82 4.70078e-05
13 *100:6 *9672:CLK 7.48091e-05
*RES
1 *9321:Y *100:6 10.6571 
2 *100:6 *9580:A2 37.2286 
3 *100:6 *9672:D 12.3179 
*END

*D_NET *101 0.00164676
*CONN
*I *9588:D I *D sky130_fd_sc_hd__dfrtp_1
*I *9170:X O *D sky130_fd_sc_hd__clkbuf_1
*CAP
1 *9588:D 0.000358172
2 *9170:X 0.000358172
3 *9588:D *9325:A2 0
4 *9588:D *9436:A1 0.00014285
5 *9588:D *9588:RESET_B 0.000137983
6 *9588:D *9626:RESET_B 0.000160657
7 *9588:D *599:30 6.05161e-06
8 *9588:D *719:14 0
9 *9588:D *751:24 0.000413047
10 *9588:D *751:35 6.98302e-05
*RES
1 *9170:X *9588:D 36.5107 
*END

*D_NET *102 0.000927964
*CONN
*I *9597:D I *D sky130_fd_sc_hd__dfrtp_2
*I *9284:Y O *D sky130_fd_sc_hd__nor3_1
*CAP
1 *9597:D 0.000338166
2 *9284:Y 0.000338166
3 *9597:D *9315:A 4.29272e-05
4 *9597:D *9597:CLK 0.000208706
5 *9597:D *587:10 0
6 *9597:D *587:36 0
*RES
1 *9284:Y *9597:D 34.0643 
*END

*D_NET *103 0.00152861
*CONN
*I *9598:D I *D sky130_fd_sc_hd__dfrtp_2
*I *9289:X O *D sky130_fd_sc_hd__clkbuf_1
*CAP
1 *9598:D 0.000454756
2 *9289:X 0.000454756
3 *9598:D *9272:A 3.69697e-05
4 *9598:D *9604:RESET_B 2.14852e-05
5 *9598:D *9808:A 8.89289e-05
6 *9598:D *347:143 0.00013949
7 *9598:D *745:71 0.000179062
8 *9598:D *891:10 8.89385e-05
9 *9598:D *891:12 6.42242e-05
*RES
1 *9289:X *9598:D 37.3321 
*END

*D_NET *104 0.00156472
*CONN
*I *9599:D I *D sky130_fd_sc_hd__dfrtp_1
*I *9293:X O *D sky130_fd_sc_hd__clkbuf_1
*CAP
1 *9599:D 0.00025477
2 *9293:X 0.00025477
3 *9599:D *9293:A 0.000125724
4 *9599:D *9599:CLK 0.000339806
5 *9599:D *9599:RESET_B 6.87574e-05
6 *9599:D *9605:CLK 0
7 *9599:D *696:16 0.000427701
8 *9599:D *696:24 9.31893e-05
*RES
1 *9293:X *9599:D 36.35 
*END

*D_NET *105 0.000347062
*CONN
*I *9600:D I *D sky130_fd_sc_hd__dfrtp_2
*I *9298:X O *D sky130_fd_sc_hd__clkbuf_1
*CAP
1 *9600:D 6.01674e-05
2 *9298:X 6.01674e-05
3 *9600:D *9298:A 1.39841e-05
4 *9600:D *9600:CLK 7.77652e-05
5 *9600:D *696:16 0.000134978
*RES
1 *9298:X *9600:D 20.7964 
*END

*D_NET *106 0.00108604
*CONN
*I *9601:D I *D sky130_fd_sc_hd__dfrtp_4
*I *9302:X O *D sky130_fd_sc_hd__clkbuf_1
*CAP
1 *9601:D 0.00041232
2 *9302:X 0.00041232
3 *9601:D *9306:D 4.70078e-05
4 *9601:D *9601:RESET_B 8.94203e-05
5 *9601:D *414:24 4.76794e-05
6 *9601:D *731:64 7.72916e-05
*RES
1 *9302:X *9601:D 33.2964 
*END

*D_NET *107 0.00124615
*CONN
*I *9602:D I *D sky130_fd_sc_hd__dfrtp_1
*I *9307:X O *D sky130_fd_sc_hd__clkbuf_1
*CAP
1 *9602:D 0.000265227
2 *9307:X 0.000265227
3 *9602:D *1036:DIODE 4.31238e-05
4 *9602:D *1039:DIODE 2.34204e-05
5 *9602:D *9300:B 1.92789e-05
6 *9602:D *584:72 0.000328619
7 *9602:D *584:83 0.000163847
8 *9602:D *895:47 5.32055e-05
9 *9602:D *895:49 1.53144e-05
10 *9602:D *895:58 5.86568e-05
11 *9602:D *895:82 1.023e-05
*RES
1 *9307:X *9602:D 34.6357 
*END

*D_NET *108 0.000956386
*CONN
*I *9603:D I *D sky130_fd_sc_hd__dfrtp_1
*I *9311:X O *D sky130_fd_sc_hd__clkbuf_1
*CAP
1 *9603:D 0.000322259
2 *9311:X 0.000322259
3 *9603:D *9308:B 0
4 *9603:D *9311:A 0.00012501
5 *9603:D *9621:D 2.61337e-05
6 *9603:D *322:338 0.000141445
7 *9603:D *446:12 0
8 *9603:D *587:42 1.92789e-05
9 *9603:D *749:120 0
*RES
1 *9311:X *9603:D 33.4393 
*END

*D_NET *109 0.000379917
*CONN
*I *9604:D I *D sky130_fd_sc_hd__dfrtp_1
*I *9315:X O *D sky130_fd_sc_hd__clkbuf_1
*CAP
1 *9604:D 8.52449e-05
2 *9315:X 8.52449e-05
3 *9604:D *9315:A 0.000102545
4 *9604:D *9597:CLK 0.000106882
*RES
1 *9315:X *9604:D 29.475 
*END

*D_NET *110 0.00115127
*CONN
*I *9605:D I *D sky130_fd_sc_hd__dfrtp_1
*I *9327:X O *D sky130_fd_sc_hd__clkbuf_1
*CAP
1 *9605:D 0.000510432
2 *9327:X 0.000510432
3 *9605:D *9605:CLK 9.38887e-05
4 *9605:D *705:14 0
5 *9605:D *729:56 3.65178e-05
*RES
1 *9327:X *9605:D 35.725 
*END

*D_NET *111 0.00225959
*CONN
*I *9581:D I *D sky130_fd_sc_hd__dfrtp_1
*I *9328:Y O *D sky130_fd_sc_hd__a21oi_1
*CAP
1 *9581:D 0.000818216
2 *9328:Y 0.000818216
3 *9581:D *9328:A2 3.14629e-05
4 *9581:D *9581:CLK 7.56856e-05
5 *9581:D *9584:CLK 0.000188586
6 *9581:D *9584:D 0.000322223
7 *9581:D *9816:A 5.19842e-06
*RES
1 *9328:Y *9581:D 30.283 
*END

*D_NET *112 0.000266495
*CONN
*I *9582:D I *D sky130_fd_sc_hd__dfrtp_1
*I *9332:X O *D sky130_fd_sc_hd__clkbuf_1
*CAP
1 *9582:D 0.000114274
2 *9332:X 0.000114274
3 *9582:D *9660:CLK 3.79467e-05
4 *9582:D *746:81 0
*RES
1 *9332:X *9582:D 29.475 
*END

*D_NET *113 0.00152779
*CONN
*I *9819:A I *D sky130_fd_sc_hd__dlygate4sd3_1
*I *9335:Y O *D sky130_fd_sc_hd__a211oi_1
*CAP
1 *9819:A 0.000357596
2 *9335:Y 0.000357596
3 *9819:A *9065:B 5.29554e-05
4 *9819:A *9329:A1 3.51531e-05
5 *9819:A *9330:A1 0.000233794
6 *9819:A *9330:B1 0
7 *9819:A *9584:RESET_B 0.000222885
8 *9819:A *228:22 0.000123718
9 *9819:A *613:19 0.000144089
*RES
1 *9335:Y *9819:A 37.1179 
*END

*D_NET *114 0.00149302
*CONN
*I *9584:D I *D sky130_fd_sc_hd__dfrtp_1
*I *9336:X O *D sky130_fd_sc_hd__o21ba_1
*CAP
1 *9584:D 0.00046457
2 *9336:X 0.00046457
3 *9584:D *9063:A 3.97657e-05
4 *9584:D *9328:A1 0.000104306
5 *9584:D *9328:A2 6.86693e-05
6 *9584:D *9335:A1 2.89114e-05
7 *9584:D *613:19 0
8 *9581:D *9584:D 0.000322223
*RES
1 *9336:X *9584:D 37.3143 
*END

*D_NET *115 0.00210938
*CONN
*I *9589:D I *D sky130_fd_sc_hd__dfrtp_1
*I *9339:X O *D sky130_fd_sc_hd__clkbuf_1
*CAP
1 *9589:D 0.000440992
2 *9339:X 0.000440992
3 *9589:D *9172:A 7.43578e-06
4 *9589:D *331:14 5.41794e-05
5 *9589:D *331:18 0.00012401
6 *9589:D *455:10 0.000207268
7 *9589:D *599:45 9.58593e-05
8 *9589:D *675:12 9.60939e-05
9 *9589:D *719:14 0
10 *9589:D *751:24 0.000642552
*RES
1 *9339:X *9589:D 39.4571 
*END

*D_NET *116 0.000910941
*CONN
*I *9590:D I *D sky130_fd_sc_hd__dfrtp_1
*I *9342:Y O *D sky130_fd_sc_hd__a21boi_1
*CAP
1 *9590:D 0.000302761
2 *9342:Y 0.000302761
3 *9590:D *1179:DIODE 0.000128154
4 *9590:D *9172:C 2.89016e-05
5 *9590:D *9342:A2 2.95726e-05
6 *9590:D *331:8 4.87953e-05
7 *9590:D *331:14 2.42516e-05
8 *9590:D *779:10 4.57445e-05
*RES
1 *9342:Y *9590:D 32.2429 
*END

*D_NET *117 0.00066158
*CONN
*I *9591:D I *D sky130_fd_sc_hd__dfrtp_1
*I *9345:X O *D sky130_fd_sc_hd__o21a_1
*CAP
1 *9591:D 0.000236785
2 *9345:X 0.000236785
3 *9591:D *1180:DIODE 0
4 *9591:D *9347:B1 6.74911e-05
5 *9591:D *9348:C 0.000120519
*RES
1 *9345:X *9591:D 31.4214 
*END

*D_NET *118 0.00106048
*CONN
*I *9592:D I *D sky130_fd_sc_hd__dfrtp_1
*I *9349:X O *D sky130_fd_sc_hd__o211a_1
*CAP
1 *9592:D 0.000296374
2 *9349:X 0.000296374
3 *9592:D *1181:DIODE 7.43578e-06
4 *9592:D *9346:A 0
5 *9592:D *9348:A 3.92757e-05
6 *9592:D *445:6 5.52238e-05
7 *9592:D *599:51 3.67257e-05
8 *9592:D *599:55 0.000142844
9 *9592:D *744:25 0.000186229
*RES
1 *9349:X *9592:D 34.5464 
*END

*D_NET *119 0.000349488
*CONN
*I *9593:D I *D sky130_fd_sc_hd__dfrtp_1
*I *9353:X O *D sky130_fd_sc_hd__o22a_1
*CAP
1 *9593:D 7.50306e-05
2 *9353:X 7.50306e-05
3 *9593:D *9353:A2 2.44691e-05
4 *9593:D *391:26 2.86824e-05
5 *9593:D *801:18 0.000146275
*RES
1 *9353:X *9593:D 29.5464 
*END

*D_NET *120 0.000720654
*CONN
*I *9594:D I *D sky130_fd_sc_hd__dfrtp_1
*I *9356:X O *D sky130_fd_sc_hd__o22a_1
*CAP
1 *9594:D 0.000247956
2 *9356:X 0.000247956
3 *9594:D *404:63 0
4 *9594:D *600:44 0.000146376
5 *9594:D *736:28 7.83659e-05
*RES
1 *9356:X *9594:D 31.283 
*END

*D_NET *121 0.000982428
*CONN
*I *9595:D I *D sky130_fd_sc_hd__dfrtp_1
*I *9359:X O *D sky130_fd_sc_hd__o22a_1
*CAP
1 *9595:D 0.000252078
2 *9359:X 0.000252078
3 *9595:D *9594:RESET_B 5.45147e-05
4 *9595:D *461:14 0.000167063
5 *9595:D *461:23 5.52302e-05
6 *9595:D *600:29 0.000137983
7 *9595:D *616:20 0
8 *9595:D *736:58 3.69697e-05
9 *9595:D *744:223 2.65105e-05
*RES
1 *9359:X *9595:D 33.2607 
*END

*D_NET *122 0.000587466
*CONN
*I *9596:D I *D sky130_fd_sc_hd__dfrtp_2
*I *9362:X O *D sky130_fd_sc_hd__o22a_1
*CAP
1 *9596:D 0.000173016
2 *9362:X 0.000173016
3 *9596:D *9362:A2 5.33005e-05
4 *9596:D *9593:CLK 7.83587e-05
5 *9596:D *9866:A 3.14163e-05
6 *9596:D *730:82 7.83587e-05
*RES
1 *9362:X *9596:D 30.85 
*END

*D_NET *123 0.00106023
*CONN
*I *9606:D I *D sky130_fd_sc_hd__dfrtp_1
*I *9367:X O *D sky130_fd_sc_hd__clkbuf_1
*CAP
1 *9606:D 0.000247751
2 *9367:X 0.000247751
3 *9606:D *9606:CLK 3.99614e-06
4 *9606:D *404:14 0.000270243
5 *9606:D *470:12 0.000270243
6 *9606:D *731:28 2.02508e-05
*RES
1 *9367:X *9606:D 33.2607 
*END

*D_NET *124 0.00124669
*CONN
*I *9607:D I *D sky130_fd_sc_hd__dfrtp_1
*I *9371:X O *D sky130_fd_sc_hd__clkbuf_1
*CAP
1 *9607:D 0.000263313
2 *9371:X 0.000263313
3 *9607:D *9371:A 4.43142e-05
4 *9607:D *9375:A 0
5 *9607:D *9378:A 0
6 *9607:D *9607:RESET_B 5.71472e-05
7 *9607:D *9609:CLK 0.000157967
8 *9607:D *9609:D 0.000177234
9 *9607:D *347:234 0.000101441
10 *9607:D *587:81 0.000181966
*RES
1 *9371:X *9607:D 35.2429 
*END

*D_NET *125 0.0017804
*CONN
*I *9608:D I *D sky130_fd_sc_hd__dfrtp_1
*I *9375:X O *D sky130_fd_sc_hd__clkbuf_1
*CAP
1 *9608:D 0.000273415
2 *9375:X 0.000273415
3 *9608:D *9374:A 3.65069e-05
4 *9608:D *9375:A 0.000481448
5 *9608:D *9608:CLK 1.74352e-05
6 *9608:D *407:127 0.00014758
7 *9608:D *407:151 9.88232e-05
8 *9608:D *731:16 0.000351156
9 *9608:D *882:20 0.000100625
*RES
1 *9375:X *9608:D 37.2071 
*END

*D_NET *126 0.00102453
*CONN
*I *9609:D I *D sky130_fd_sc_hd__dfrtp_1
*I *9379:X O *D sky130_fd_sc_hd__clkbuf_1
*CAP
1 *9609:D 0.000219014
2 *9379:X 0.000219014
3 *9609:D *9278:D 9.90431e-05
4 *9609:D *9371:A 0.000249493
5 *9609:D *9375:A 0
6 *9609:D *9378:A 0
7 *9609:D *9379:A 0
8 *9609:D *347:234 6.07328e-05
9 *9607:D *9609:D 0.000177234
*RES
1 *9379:X *9609:D 33.225 
*END

*D_NET *127 0.000579056
*CONN
*I *9610:D I *D sky130_fd_sc_hd__dfrtp_1
*I *9383:X O *D sky130_fd_sc_hd__clkbuf_1
*CAP
1 *9610:D 0.000203306
2 *9383:X 0.000203306
3 *9610:D *9381:A 5.97113e-05
4 *9610:D *9385:C 8.86129e-06
5 *9610:D *9610:RESET_B 1.07719e-05
6 *9610:D *383:14 2.13481e-06
7 *9610:D *748:134 7.6644e-05
8 *9610:D *885:25 1.43198e-05
*RES
1 *9383:X *9610:D 30.7116 
*END

*D_NET *128 0.00034451
*CONN
*I *9611:D I *D sky130_fd_sc_hd__dfrtp_1
*I *9387:X O *D sky130_fd_sc_hd__clkbuf_1
*CAP
1 *9611:D 0.000122869
2 *9387:X 0.000122869
3 *9611:D *9387:A 3.92854e-05
4 *9611:D *9611:CLK 5.94862e-05
*RES
1 *9387:X *9611:D 29.6357 
*END

*D_NET *129 0.000332156
*CONN
*I *9612:D I *D sky130_fd_sc_hd__dfrtp_1
*I *9391:X O *D sky130_fd_sc_hd__clkbuf_1
*CAP
1 *9612:D 9.03511e-05
2 *9391:X 9.03511e-05
3 *9612:D *9389:A 6.05161e-06
4 *9612:D *9389:B 1.77294e-05
5 *9612:D *9391:A 3.69697e-05
6 *9612:D *393:10 8.00806e-05
7 *9612:D *590:93 1.06225e-05
*RES
1 *9391:X *9612:D 29.35 
*END

*D_NET *130 0.000477291
*CONN
*I *9613:D I *D sky130_fd_sc_hd__dfrtp_1
*I *9395:X O *D sky130_fd_sc_hd__clkbuf_1
*CAP
1 *9613:D 0.000113789
2 *9395:X 0.000113789
3 *9613:D *404:14 6.97972e-05
4 *9613:D *590:93 5.17614e-05
5 *9613:D *749:159 0.000128154
*RES
1 *9395:X *9613:D 30.1893 
*END

*D_NET *131 0.000314213
*CONN
*I *9614:D I *D sky130_fd_sc_hd__dfrtp_1
*I *9399:X O *D sky130_fd_sc_hd__clkbuf_1
*CAP
1 *9614:D 6.77736e-05
2 *9399:X 6.77736e-05
3 *9614:D *9399:A 1.33343e-05
4 *9614:D *9614:CLK 2.44318e-05
5 *9614:D *470:33 0.0001409
*RES
1 *9399:X *9614:D 20.7964 
*END

*D_NET *132 0.000574608
*CONN
*I *9615:D I *D sky130_fd_sc_hd__dfrtp_1
*I *9403:X O *D sky130_fd_sc_hd__clkbuf_1
*CAP
1 *9615:D 0.000145064
2 *9403:X 0.000145064
3 *9615:D *9402:B 9.90431e-05
4 *9615:D *9403:A 0.000142856
5 *9615:D *9614:CLK 4.25809e-05
*RES
1 *9403:X *9615:D 31.0286 
*END

*D_NET *133 0.000214065
*CONN
*I *9616:D I *D sky130_fd_sc_hd__dfrtp_1
*I *9407:X O *D sky130_fd_sc_hd__clkbuf_1
*CAP
1 *9616:D 8.73945e-05
2 *9407:X 8.73945e-05
3 *9616:D *9410:A 0
4 *9616:D *9411:A 0
5 *9616:D *749:130 3.92757e-05
*RES
1 *9407:X *9616:D 29.2429 
*END

*D_NET *134 0.000160787
*CONN
*I *9617:D I *D sky130_fd_sc_hd__dfrtp_1
*I *9411:X O *D sky130_fd_sc_hd__clkbuf_1
*CAP
1 *9617:D 6.14201e-05
2 *9411:X 6.14201e-05
3 *9617:D *9410:A 0
4 *9617:D *9617:CLK 3.79467e-05
*RES
1 *9411:X *9617:D 28.9393 
*END

*D_NET *135 0.000329866
*CONN
*I *9618:D I *D sky130_fd_sc_hd__dfrtp_1
*I *9415:X O *D sky130_fd_sc_hd__clkbuf_1
*CAP
1 *9618:D 0.0001256
2 *9415:X 0.0001256
3 *9618:D *9415:A 3.00207e-07
4 *9618:D *9618:CLK 7.83659e-05
5 *9618:D *730:72 0
*RES
1 *9415:X *9618:D 29.4973 
*END

*D_NET *136 0.000757877
*CONN
*I *9619:D I *D sky130_fd_sc_hd__dfrtp_1
*I *9419:X O *D sky130_fd_sc_hd__clkbuf_1
*CAP
1 *9619:D 0.000315145
2 *9419:X 0.000315145
3 *9619:D *9415:A 0.000106542
4 *9619:D *9618:CLK 1.69115e-05
5 *9619:D *590:39 4.1331e-06
6 *9619:D *749:130 0
*RES
1 *9419:X *9619:D 33.0286 
*END

*D_NET *137 0.00200175
*CONN
*I *9620:D I *D sky130_fd_sc_hd__dfrtp_1
*I *9421:X O *D sky130_fd_sc_hd__a211o_1
*CAP
1 *9620:D 0.000830127
2 *9421:X 0.000830127
3 *9620:D *9282:B 6.79057e-05
4 *9620:D *9416:B1 1.20244e-05
5 *9620:D *9619:RESET_B 4.28817e-05
6 *9620:D *505:40 0.000218685
7 *9620:D *590:39 0
8 *9620:D *749:130 0
*RES
1 *9421:X *9620:D 38.1 
*END

*D_NET *138 0.00100258
*CONN
*I *9621:D I *D sky130_fd_sc_hd__dfrtp_1
*I *9424:X O *D sky130_fd_sc_hd__clkbuf_1
*CAP
1 *9621:D 0.000279084
2 *9424:X 0.000279084
3 *9621:D *9424:A 0
4 *9621:D *9621:CLK 0.000218266
5 *9621:D *322:338 5.52238e-05
6 *9621:D *406:10 3.55552e-05
7 *9621:D *749:120 0.00010923
8 *9603:D *9621:D 2.61337e-05
*RES
1 *9424:X *9621:D 32.8857 
*END

*D_NET *139 0.000928515
*CONN
*I *9622:D I *D sky130_fd_sc_hd__dfrtp_1
*I *9429:X O *D sky130_fd_sc_hd__clkbuf_1
*CAP
1 *9622:D 0.000276268
2 *9429:X 0.000276268
3 *9622:D *9622:CLK 3.57366e-05
4 *9622:D *9622:RESET_B 0.000175584
5 *9622:D *584:53 7.83659e-05
6 *9622:D *696:16 4.70063e-05
7 *9622:D *742:61 3.92854e-05
*RES
1 *9429:X *9622:D 32.0643 
*END

*D_NET *140 0.000549783
*CONN
*I *9623:D I *D sky130_fd_sc_hd__dfrtp_1
*I *9431:X O *D sky130_fd_sc_hd__clkbuf_1
*CAP
1 *9623:D 0.000135582
2 *9431:X 0.000135582
3 *9623:D *9431:A 0.000104974
4 *9623:D *9623:CLK 6.86693e-05
5 *9623:D *744:167 0.000104974
6 *9623:D *751:67 0
*RES
1 *9431:X *9623:D 30.725 
*END

*D_NET *141 0.00125778
*CONN
*I *9624:D I *D sky130_fd_sc_hd__dfrtp_1
*I *9433:X O *D sky130_fd_sc_hd__clkbuf_1
*CAP
1 *9624:D 0.000271464
2 *9433:X 0.000271464
3 *9624:D *9587:RESET_B 0.00016641
4 *9624:D *599:10 3.92757e-05
5 *9624:D *599:12 0.000105591
6 *9624:D *599:14 3.17163e-05
7 *9624:D *744:169 5.52238e-05
8 *9624:D *899:28 0.000316631
*RES
1 *9433:X *9624:D 33.85 
*END

*D_NET *142 0.00105292
*CONN
*I *9625:D I *D sky130_fd_sc_hd__dfstp_1
*I *9435:X O *D sky130_fd_sc_hd__clkbuf_1
*CAP
1 *9625:D 0.000259612
2 *9435:X 0.000259612
3 *9625:D *9181:A2 0
4 *9625:D *9203:B2 0.000144773
5 *9625:D *337:165 5.26091e-05
6 *9625:D *377:16 0
7 *9625:D *791:108 0.000336317
*RES
1 *9435:X *9625:D 33.3321 
*END

*D_NET *143 0.00035293
*CONN
*I *9626:D I *D sky130_fd_sc_hd__dfrtp_2
*I *9437:X O *D sky130_fd_sc_hd__clkbuf_1
*CAP
1 *9626:D 0.000112201
2 *9437:X 0.000112201
3 *9626:D *9437:A 3.57366e-05
4 *9626:D *9626:CLK 3.18676e-05
5 *9626:D *9626:RESET_B 0
6 *9626:D *742:83 6.09242e-05
*RES
1 *9437:X *9626:D 20.7964 
*END

*D_NET *144 0.000573664
*CONN
*I *9627:D I *D sky130_fd_sc_hd__dfrtp_1
*I *9439:X O *D sky130_fd_sc_hd__clkbuf_1
*CAP
1 *9627:D 0.000211297
2 *9439:X 0.000211297
3 *9627:D *377:16 0
4 *9627:D *732:44 0.000151071
*RES
1 *9439:X *9627:D 32.1357 
*END

*D_NET *145 0.000319788
*CONN
*I *9628:D I *D sky130_fd_sc_hd__dfrtp_1
*I *9441:X O *D sky130_fd_sc_hd__clkbuf_1
*CAP
1 *9628:D 8.18669e-05
2 *9441:X 8.18669e-05
3 *9628:D *9151:B1 5.52238e-05
4 *9628:D *9628:CLK 0
5 *9628:D *322:77 0.000100831
*RES
1 *9441:X *9628:D 29.475 
*END

*D_NET *146 0.00148458
*CONN
*I *9629:D I *D sky130_fd_sc_hd__dfrtp_1
*I *9443:X O *D sky130_fd_sc_hd__clkbuf_1
*CAP
1 *9629:D 0.000404056
2 *9443:X 0.000404056
3 *9629:D *347:22 0.000187019
4 *9629:D *347:24 6.81083e-05
5 *9629:D *347:28 1.02504e-05
6 *9629:D *595:31 0.000148142
7 *9629:D *812:12 0.000262948
*RES
1 *9443:X *9629:D 35.3143 
*END

*D_NET *147 0.000488771
*CONN
*I *9630:D I *D sky130_fd_sc_hd__dfrtp_1
*I *9445:X O *D sky130_fd_sc_hd__clkbuf_1
*CAP
1 *9630:D 0.000124477
2 *9445:X 0.000124477
3 *9630:D *566:60 4.6025e-06
4 *9630:D *566:62 0.000116227
5 *9630:D *817:23 9.13044e-05
6 *9630:D *817:25 2.76821e-05
*RES
1 *9445:X *9630:D 30.7607 
*END

*D_NET *148 0.000430604
*CONN
*I *9631:D I *D sky130_fd_sc_hd__dfrtp_1
*I *9447:X O *D sky130_fd_sc_hd__clkbuf_1
*CAP
1 *9631:D 0.000215302
2 *9447:X 0.000215302
3 *9631:D *812:12 0
*RES
1 *9447:X *9631:D 30.6 
*END

*D_NET *149 0.000589047
*CONN
*I *9632:D I *D sky130_fd_sc_hd__dfrtp_1
*I *9449:X O *D sky130_fd_sc_hd__clkbuf_1
*CAP
1 *9632:D 0.000178902
2 *9449:X 0.000178902
3 *9632:D *9442:A0 4.82976e-05
4 *9632:D *9449:A 1.3142e-05
5 *9632:D *9632:CLK 0
6 *9632:D *369:82 0.000169804
*RES
1 *9449:X *9632:D 31.0152 
*END

*D_NET *150 0.000259451
*CONN
*I *9633:D I *D sky130_fd_sc_hd__dfrtp_1
*I *9451:X O *D sky130_fd_sc_hd__clkbuf_1
*CAP
1 *9633:D 7.61602e-05
2 *9451:X 7.61602e-05
3 *9633:D *9556:A0 1.97381e-05
4 *9633:D *822:29 5.48581e-05
5 *9633:D *828:10 3.2534e-05
*RES
1 *9451:X *9633:D 29.5464 
*END

*D_NET *151 0.00053101
*CONN
*I *9634:D I *D sky130_fd_sc_hd__dfrtp_1
*I *9453:X O *D sky130_fd_sc_hd__clkbuf_1
*CAP
1 *9634:D 0.000170139
2 *9453:X 0.000170139
3 *9634:D *9141:A 4.46231e-06
4 *9634:D *595:10 0.000177409
5 *9634:D *595:29 8.86129e-06
*RES
1 *9453:X *9634:D 30.1759 
*END

*D_NET *152 0.000377037
*CONN
*I *9635:D I *D sky130_fd_sc_hd__dfrtp_1
*I *9455:X O *D sky130_fd_sc_hd__clkbuf_1
*CAP
1 *9635:D 0.000104536
2 *9455:X 0.000104536
3 *9635:D *9153:B 0.000119125
4 *9635:D *9635:CLK 4.884e-05
*RES
1 *9455:X *9635:D 21.2071 
*END

*D_NET *153 0.000275493
*CONN
*I *9636:D I *D sky130_fd_sc_hd__dfrtp_1
*I *9456:X O *D sky130_fd_sc_hd__a21o_1
*CAP
1 *9636:D 0.000122062
2 *9456:X 0.000122062
3 *9636:D *9636:RESET_B 3.13687e-05
*RES
1 *9456:X *9636:D 29.7786 
*END

*D_NET *154 0.00132396
*CONN
*I *9637:D I *D sky130_fd_sc_hd__dfrtp_1
*I *9458:X O *D sky130_fd_sc_hd__clkbuf_1
*CAP
1 *9637:D 0.000478784
2 *9458:X 0.000478784
3 *9637:D *9245:A1 1.39726e-05
4 *9637:D *9458:A 0.000180165
5 *9637:D *9580:A1 4.15455e-05
6 *9637:D *276:40 5.29378e-05
7 *9637:D *597:80 7.77751e-05
8 *9637:D *743:96 0
9 *9637:D *794:18 0
*RES
1 *9458:X *9637:D 36.35 
*END

*D_NET *155 0.000286909
*CONN
*I *9638:D I *D sky130_fd_sc_hd__dfrtp_1
*I *9460:X O *D sky130_fd_sc_hd__clkbuf_1
*CAP
1 *9638:D 0.000100547
2 *9460:X 0.000100547
3 *9638:D *9242:A1 5.49489e-05
4 *9638:D *9638:CLK 3.08664e-05
*RES
1 *9460:X *9638:D 29.475 
*END

*D_NET *156 0.0022797
*CONN
*I *9640:D I *D sky130_fd_sc_hd__dfrtp_1
*I *9462:X O *D sky130_fd_sc_hd__a21o_1
*CAP
1 *9640:D 0.000444886
2 *9462:X 0.000444886
3 *9640:D *9531:A1 0.000535825
4 *9640:D *9533:A0 0.000317864
5 *9640:D *9533:A1 2.44318e-05
6 *9640:D *9533:S 5.33005e-05
7 *9640:D *9656:RESET_B 0.000137983
8 *9640:D *299:27 7.83587e-05
9 *9640:D *442:127 3.69697e-05
10 *9640:D *442:144 0.000205197
*RES
1 *9462:X *9640:D 39.6179 
*END

*D_NET *157 0.00108016
*CONN
*I *9641:D I *D sky130_fd_sc_hd__dfrtp_1
*I *9467:X O *D sky130_fd_sc_hd__a22o_1
*CAP
1 *9641:D 0.000358802
2 *9467:X 0.000358802
3 *9641:D *9467:A1 0.000125969
4 *9641:D *9641:RESET_B 0.000104742
5 *9641:D *738:72 3.69047e-06
6 *9641:D *817:23 0.000128154
*RES
1 *9467:X *9641:D 34.7071 
*END

*D_NET *158 0.000292724
*CONN
*I *9843:A I *D sky130_fd_sc_hd__dlygate4sd3_1
*I *9468:X O *D sky130_fd_sc_hd__a22o_1
*CAP
1 *9843:A 7.10924e-05
2 *9468:X 7.10924e-05
3 *9843:A *1078:DIODE 5.7661e-06
4 *9843:A *9468:B2 0
5 *9843:A *537:227 0.000144773
*RES
1 *9468:X *9843:A 20.3857 
*END

*D_NET *159 0.00124178
*CONN
*I *9805:A I *D sky130_fd_sc_hd__dlygate4sd3_1
*I *9469:X O *D sky130_fd_sc_hd__a22o_1
*CAP
1 *9805:A 0.000165103
2 *9469:X 0.000165103
3 *9805:A *9644:RESET_B 0.00022117
4 *9805:A *9794:A 6.07626e-05
5 *9805:A *704:8 0.000503913
6 *9805:A *739:32 0.000125724
*RES
1 *9469:X *9805:A 34.1 
*END

*D_NET *160 0.000220969
*CONN
*I *9796:A I *D sky130_fd_sc_hd__dlygate4sd3_1
*I *9470:X O *D sky130_fd_sc_hd__a22o_1
*CAP
1 *9796:A 8.7575e-05
2 *9470:X 8.7575e-05
3 *9796:A *9470:A2 0
4 *9796:A *623:14 0
5 *9796:A *739:30 4.58194e-05
*RES
1 *9470:X *9796:A 19.975 
*END

*D_NET *161 0.00173087
*CONN
*I *9776:A I *D sky130_fd_sc_hd__dlygate4sd3_1
*I *9471:X O *D sky130_fd_sc_hd__a22o_1
*CAP
1 *9776:A 0.000408918
2 *9471:X 0.000408918
3 *9776:A *9472:A1 9.80173e-05
4 *9776:A *9472:B2 0.000270236
5 *9776:A *9645:CLK 0.000230475
6 *9776:A *9646:D 0.000125724
7 *9776:A *9769:A 0.000188586
8 *9776:A *9774:A 0
9 *9776:A *594:25 0
10 *9776:A *594:27 0
*RES
1 *9471:X *9776:A 37.225 
*END

*D_NET *162 0.000657281
*CONN
*I *9646:D I *D sky130_fd_sc_hd__dfrtp_1
*I *9472:X O *D sky130_fd_sc_hd__a22o_1
*CAP
1 *9646:D 0.000186388
2 *9472:X 0.000186388
3 *9646:D *9472:A1 5.52302e-05
4 *9646:D *9473:A1 9.32691e-05
5 *9646:D *9774:A 0
6 *9646:D *537:138 1.02821e-05
7 *9776:A *9646:D 0.000125724
*RES
1 *9472:X *9646:D 31.0107 
*END

*D_NET *163 0.00107372
*CONN
*I *9774:A I *D sky130_fd_sc_hd__dlygate4sd3_1
*I *9473:X O *D sky130_fd_sc_hd__a22o_1
*CAP
1 *9774:A 0.000361167
2 *9473:X 0.000361167
3 *9774:A *1088:DIODE 7.83659e-05
4 *9774:A *9473:A1 0.000175158
5 *9774:A *9646:CLK 9.34004e-05
6 *9774:A *594:27 4.46186e-06
7 *9646:D *9774:A 0
8 *9776:A *9774:A 0
*RES
1 *9473:X *9774:A 34.2607 
*END

*D_NET *164 0.000522905
*CONN
*I *9648:D I *D sky130_fd_sc_hd__dfrtp_1
*I *9474:X O *D sky130_fd_sc_hd__a22o_1
*CAP
1 *9648:D 0.000172184
2 *9474:X 0.000172184
3 *9648:D *9648:CLK 7.56856e-05
4 *9648:D *9709:RESET_B 2.51343e-06
5 *9648:D *566:86 0
6 *9648:D *738:42 1.00073e-05
7 *9648:D *863:10 1.02504e-05
8 *9648:D *863:28 8.00806e-05
*RES
1 *9474:X *9648:D 30.3188 
*END

*D_NET *165 0.00178107
*CONN
*I *9770:A I *D sky130_fd_sc_hd__dlygate4sd3_1
*I *9475:X O *D sky130_fd_sc_hd__a22o_1
*CAP
1 *9770:A 0.00054982
2 *9475:X 0.00054982
3 *9770:A *9694:CLK 0.000129595
4 *9770:A *9694:D 1.74352e-05
5 *9770:A *9783:A 0.00010986
6 *9770:A *539:246 6.74911e-05
7 *9770:A *854:21 0.000357048
*RES
1 *9475:X *9770:A 37.3143 
*END

*D_NET *166 0.00414922
*CONN
*I *9784:A I *D sky130_fd_sc_hd__dlygate4sd3_1
*I *9476:X O *D sky130_fd_sc_hd__a22o_1
*CAP
1 *9784:A 0
2 *9476:X 0.00150047
3 *166:18 0.00150047
4 *166:18 *9551:A 4.51641e-05
5 *166:18 *9702:CLK 0.000126639
6 *166:18 *9702:D 5.54204e-05
7 *166:18 *9759:A 0.000589599
8 *166:18 *9801:A 0.000125057
9 *166:18 *537:50 8.00806e-05
10 *166:18 *566:64 0.000126322
11 *166:18 *738:84 0
*RES
1 *9476:X *166:18 49.2821 
2 *166:18 *9784:A 9.3 
*END

*D_NET *167 0.00100689
*CONN
*I *9651:D I *D sky130_fd_sc_hd__dfrtp_1
*I *9477:X O *D sky130_fd_sc_hd__a22o_1
*CAP
1 *9651:D 0.000352317
2 *9477:X 0.000352317
3 *9651:D *9695:RESET_B 0
4 *9651:D *9759:A 3.18676e-05
5 *9651:D *537:42 1.56e-05
6 *9651:D *537:50 0.00025479
*RES
1 *9477:X *9651:D 34.8679 
*END

*D_NET *168 0.000126601
*CONN
*I *9765:A I *D sky130_fd_sc_hd__dlygate4sd3_1
*I *9478:X O *D sky130_fd_sc_hd__a22o_1
*CAP
1 *9765:A 3.14326e-05
2 *9478:X 3.14326e-05
3 *9765:A *9478:A1 3.18676e-05
4 *9765:A *539:76 0
5 *9765:A *739:234 3.18676e-05
*RES
1 *9478:X *9765:A 19.5643 
*END

*D_NET *169 0.000113977
*CONN
*I *9793:A I *D sky130_fd_sc_hd__dlygate4sd3_1
*I *9479:X O *D sky130_fd_sc_hd__a22o_1
*CAP
1 *9793:A 4.45532e-05
2 *9479:X 4.45532e-05
3 *9793:A *9479:A1 7.43578e-06
4 *9793:A *9652:RESET_B 1.74352e-05
*RES
1 *9479:X *9793:A 19.5643 
*END

*D_NET *170 0.00117243
*CONN
*I *9654:D I *D sky130_fd_sc_hd__dfrtp_1
*I *9480:X O *D sky130_fd_sc_hd__a22o_1
*CAP
1 *9654:D 0.000432734
2 *9480:X 0.000432734
3 *9654:D *1102:DIODE 0
4 *9654:D *9114:A 0
5 *9654:D *9558:A1 0
6 *9654:D *9628:RESET_B 9.25014e-06
7 *9654:D *9654:RESET_B 4.45163e-05
8 *9654:D *9700:D 0.000122101
9 *9654:D *9700:RESET_B 0.000102197
10 *9654:D *322:77 2.89016e-05
11 *9654:D *539:37 0
12 *9654:D *566:44 0
*RES
1 *9480:X *9654:D 35.0107 
*END

*D_NET *171 0.000119455
*CONN
*I *9761:A I *D sky130_fd_sc_hd__dlygate4sd3_1
*I *9482:X O *D sky130_fd_sc_hd__a22o_1
*CAP
1 *9761:A 3.2423e-05
2 *9482:X 3.2423e-05
3 *9761:A *9482:B1 3.18676e-05
4 *9761:A *9482:B2 2.27416e-05
*RES
1 *9482:X *9761:A 19.5643 
*END

*D_NET *172 0.00123628
*CONN
*I *9779:A I *D sky130_fd_sc_hd__dlygate4sd3_1
*I *9484:X O *D sky130_fd_sc_hd__a22o_1
*CAP
1 *9779:A 0.000454759
2 *9484:X 0.000454759
3 *9779:A *9136:D 7.92229e-06
4 *9779:A *9484:A1 1.59373e-05
5 *9779:A *9484:A2 5.45307e-05
6 *9779:A *9656:CLK 8.55156e-05
7 *9779:A *9656:D 0
8 *9779:A *9682:CLK 5.37741e-06
9 *9779:A *540:370 2.74273e-05
10 *9779:A *540:378 0.000130054
11 *9779:A *790:14 0
12 *9779:A *793:22 0
13 *9779:A *793:26 0
*RES
1 *9484:X *9779:A 36.1357 
*END

*D_NET *173 0.00172283
*CONN
*I *9657:D I *D sky130_fd_sc_hd__dfrtp_1
*I *9485:X O *D sky130_fd_sc_hd__a22o_1
*CAP
1 *9657:D 0.000330363
2 *9485:X 0.000330363
3 *9657:D *299:16 0.000116681
4 *9657:D *348:161 0.00039865
5 *9657:D *348:171 0.000157672
6 *9657:D *792:10 9.95264e-05
7 *9657:D *792:33 0.000289571
*RES
1 *9485:X *9657:D 37.1893 
*END

*D_NET *174 0.00166727
*CONN
*I *9658:D I *D sky130_fd_sc_hd__dfrtp_1
*I *9486:X O *D sky130_fd_sc_hd__a22o_1
*CAP
1 *9658:D 0.000461383
2 *9486:X 0.000461383
3 *9658:D *1111:DIODE 9.96238e-05
4 *9658:D *9462:A2 2.89016e-05
5 *9658:D *9656:RESET_B 3.18676e-05
6 *9658:D *9659:D 0.000369811
7 *9658:D *588:14 5.33005e-05
8 *9658:D *588:16 0
9 *9658:D *588:18 0
10 *9658:D *802:16 0.000161
*RES
1 *9486:X *9658:D 37.6 
*END

*D_NET *175 0.00152437
*CONN
*I *9659:D I *D sky130_fd_sc_hd__dfrtp_1
*I *9487:X O *D sky130_fd_sc_hd__a22o_1
*CAP
1 *9659:D 0.000333868
2 *9487:X 0.000333868
3 *9659:D *9486:A2 0
4 *9659:D *9487:A1 0
5 *9659:D *9659:RESET_B 2.59355e-05
6 *9659:D *9751:A 9.90367e-05
7 *9659:D *802:16 0.000306625
8 *9659:D *832:18 5.52238e-05
9 *9658:D *9659:D 0.000369811
*RES
1 *9487:X *9659:D 36.1893 
*END

*D_NET *176 0.00112791
*CONN
*I *9763:A I *D sky130_fd_sc_hd__dlygate4sd3_1
*I *9488:X O *D sky130_fd_sc_hd__a22o_1
*CAP
1 *9763:A 0.00056194
2 *9488:X 0.00056194
3 *9763:A *1223:DIODE 4.0342e-06
4 *9763:A *9660:CLK 0
5 *9763:A *791:10 0
*RES
1 *9488:X *9763:A 35.4929 
*END

*D_NET *177 0.000461516
*CONN
*I *9781:A I *D sky130_fd_sc_hd__dlygate4sd3_1
*I *9489:X O *D sky130_fd_sc_hd__a22o_1
*CAP
1 *9781:A 0.000202184
2 *9489:X 0.000202184
3 *9781:A *9490:A1 0
4 *9781:A *627:6 5.71472e-05
5 *9781:A *757:18 0
*RES
1 *9489:X *9781:A 30.6 
*END

*D_NET *178 0.000814012
*CONN
*I *9662:D I *D sky130_fd_sc_hd__dfrtp_1
*I *9490:X O *D sky130_fd_sc_hd__a22o_1
*CAP
1 *9662:D 0.000383173
2 *9490:X 0.000383173
3 *9662:D *9661:D 1.58213e-06
4 *9662:D *598:105 3.69697e-05
5 *9662:D *757:18 9.11365e-06
*RES
1 *9490:X *9662:D 32.35 
*END

*D_NET *179 0.00167134
*CONN
*I *9663:D I *D sky130_fd_sc_hd__dfrtp_1
*I *9491:X O *D sky130_fd_sc_hd__a22o_1
*CAP
1 *9663:D 0.000417956
2 *9491:X 0.000417956
3 *9663:D *1120:DIODE 1.92905e-05
4 *9663:D *9067:B 0.000126439
5 *9663:D *9491:A1 0
6 *9663:D *9541:A1 0.000187019
7 *9663:D *9663:RESET_B 0.000121339
8 *9663:D *9839:A 5.75896e-05
9 *9663:D *540:331 0
10 *9663:D *743:164 0.000198698
11 *9663:D *838:10 0.000125057
*RES
1 *9491:X *9663:D 38.0464 
*END

*D_NET *180 0.000479007
*CONN
*I *9768:A I *D sky130_fd_sc_hd__dlygate4sd3_1
*I *9492:X O *D sky130_fd_sc_hd__a22o_1
*CAP
1 *9768:A 0.000164575
2 *9492:X 0.000164575
3 *9768:A *9491:B2 4.38511e-05
4 *9768:A *9492:A1 7.80968e-05
5 *9768:A *9835:A 2.79092e-05
6 *9768:A *541:189 0
*RES
1 *9492:X *9768:A 31.6714 
*END

*D_NET *181 0.0034444
*CONN
*I *9803:A I *D sky130_fd_sc_hd__dlygate4sd3_1
*I *9493:X O *D sky130_fd_sc_hd__a22o_1
*CAP
1 *9803:A 0.000850248
2 *9493:X 0.000850248
3 *9803:A *1126:DIODE 0.000102207
4 *9803:A *1127:DIODE 6.22419e-05
5 *9803:A *1141:DIODE 0.000181796
6 *9803:A *9493:B2 0.000399144
7 *9803:A *9494:A1 0.000356028
8 *9803:A *9494:A2 2.89016e-05
9 *9803:A *9495:A1 0.000100835
10 *9803:A *9666:D 0
11 *9803:A *9791:A 0.000188586
12 *9803:A *589:100 0.000324167
*RES
1 *9493:X *9803:A 47.0107 
*END

*D_NET *182 0.000617745
*CONN
*I *9791:A I *D sky130_fd_sc_hd__dlygate4sd3_1
*I *9494:X O *D sky130_fd_sc_hd__a22o_1
*CAP
1 *9791:A 0.00021458
2 *9494:X 0.00021458
3 *9791:A *9494:B2 0
4 *9803:A *9791:A 0.000188586
*RES
1 *9494:X *9791:A 31.0107 
*END

*D_NET *183 0.00166033
*CONN
*I *9789:A I *D sky130_fd_sc_hd__dlygate4sd3_1
*I *9495:X O *D sky130_fd_sc_hd__a22o_1
*CAP
1 *9789:A 0.000476069
2 *9495:X 0.000476069
3 *9789:A *9495:A1 7.28784e-05
4 *9789:A *9495:B2 5.65955e-05
5 *9789:A *9519:A1 7.32955e-05
6 *9789:A *9519:S 0.000357952
7 *9789:A *9520:A 2.14757e-05
8 *9789:A *635:19 0.000125997
*RES
1 *9495:X *9789:A 27.7786 
*END

*D_NET *184 0.00100161
*CONN
*I *9668:D I *D sky130_fd_sc_hd__dfrtp_1
*I *9496:X O *D sky130_fd_sc_hd__a22o_1
*CAP
1 *9668:D 0.000187945
2 *9496:X 0.000187945
3 *9668:D *9668:RESET_B 0.000179435
4 *9668:D *9681:CLK 1.98839e-05
5 *9668:D *9787:A 6.95019e-05
6 *9668:D *442:106 0
7 *9668:D *589:47 7.19508e-05
8 *9668:D *635:19 0.000284953
*RES
1 *9496:X *9668:D 33.1357 
*END

*D_NET *185 0.000915821
*CONN
*I *9772:A I *D sky130_fd_sc_hd__dlygate4sd3_1
*I *9497:X O *D sky130_fd_sc_hd__a22o_1
*CAP
1 *9772:A 0.000263036
2 *9497:X 0.000263036
3 *9772:A *9074:B 0.000152333
4 *9772:A *9075:B 7.60306e-05
5 *9772:A *9498:A1 0
6 *9772:A *541:41 3.92854e-05
7 *9772:A *598:16 0.000122101
*RES
1 *9497:X *9772:A 33.85 
*END

*D_NET *186 0.00124695
*CONN
*I *9670:D I *D sky130_fd_sc_hd__dfrtp_1
*I *9498:X O *D sky130_fd_sc_hd__a22o_1
*CAP
1 *9670:D 0.000231987
2 *9498:X 0.000231987
3 *9670:D *9498:A1 4.58194e-05
4 *9670:D *9499:B2 5.52302e-05
5 *9670:D *9670:CLK 5.33005e-05
6 *9670:D *442:10 0.000313458
7 *9670:D *541:41 0.000315172
*RES
1 *9498:X *9670:D 33.975 
*END

*D_NET *187 0.00399364
*CONN
*I *9757:A I *D sky130_fd_sc_hd__dlygate4sd3_1
*I *9499:X O *D sky130_fd_sc_hd__a22o_1
*CAP
1 *9757:A 0
2 *9499:X 0.00119942
3 *187:24 0.00119942
4 *187:24 *9075:B 7.76647e-05
5 *187:24 *9578:S 5.7616e-05
6 *187:24 *9710:D 0
7 *187:24 *238:8 0.000220455
8 *187:24 *383:12 0.00121232
9 *187:24 *442:10 2.04825e-05
10 *187:24 *540:31 6.2589e-06
*RES
1 *9499:X *187:24 46.1393 
2 *187:24 *9757:A 9.3 
*END

*D_NET *188 0.000947418
*CONN
*I *9673:D I *D sky130_fd_sc_hd__dfrtp_1
*I *9501:X O *D sky130_fd_sc_hd__a21o_1
*CAP
1 *9673:D 0.000360256
2 *9501:X 0.000360256
3 *9673:D *9319:B 7.6644e-05
4 *9673:D *9504:A2 5.71472e-05
5 *9673:D *9508:B 0
6 *9673:D *9511:A 0
7 *9673:D *662:10 0
8 *9673:D *785:33 9.31149e-05
*RES
1 *9501:X *9673:D 34.6357 
*END

*D_NET *189 0.000903897
*CONN
*I *9674:D I *D sky130_fd_sc_hd__dfrtp_2
*I *9504:X O *D sky130_fd_sc_hd__a31o_1
*CAP
1 *9674:D 0.000154
2 *9504:X 0.000154
3 *9674:D *9826:A 1.21258e-05
4 *9674:D *596:8 0.00012401
5 *9674:D *596:12 0.000137983
6 *9674:D *596:21 4.16984e-05
7 *9674:D *784:29 0.000154354
8 *9674:D *863:54 0.000125724
*RES
1 *9504:X *9674:D 32.2429 
*END

*D_NET *190 0.00103098
*CONN
*I *9814:A I *D sky130_fd_sc_hd__dlygate4sd3_1
*I *9507:X O *D sky130_fd_sc_hd__a32o_1
*CAP
1 *9814:A 0.000264403
2 *9507:X 0.000264403
3 *9814:A *9504:A2 0.000312222
4 *9814:A *9507:B1 6.42242e-05
5 *9814:A *783:14 0.000125724
*RES
1 *9507:X *9814:A 32.2429 
*END

*D_NET *191 0.000427891
*CONN
*I *9676:D I *D sky130_fd_sc_hd__dfrtp_1
*I *9510:X O *D sky130_fd_sc_hd__clkbuf_1
*CAP
1 *9676:D 0.000140593
2 *9510:X 0.000140593
3 *9676:D *9676:CLK 4.57445e-05
4 *9676:D *348:99 0.00010096
*RES
1 *9510:X *9676:D 30.1893 
*END

*D_NET *192 0.000533361
*CONN
*I *9826:A I *D sky130_fd_sc_hd__dlygate4sd3_1
*I *9513:X O *D sky130_fd_sc_hd__a31o_1
*CAP
1 *9826:A 0.000119578
2 *9513:X 0.000119578
3 *9826:A *9233:B2 0.000127446
4 *9826:A *596:12 2.89016e-05
5 *9826:A *596:45 0.000125731
6 *9674:D *9826:A 1.21258e-05
*RES
1 *9513:X *9826:A 30.1893 
*END

*D_NET *193 0.000338319
*CONN
*I *9678:D I *D sky130_fd_sc_hd__dfrtp_1
*I *9514:X O *D sky130_fd_sc_hd__o21a_1
*CAP
1 *9678:D 0.0001193
2 *9514:X 0.0001193
3 *9678:D *9504:A2 5.71472e-05
4 *9678:D *9505:B 0
5 *9678:D *549:8 3.9745e-05
6 *9678:D *549:16 2.8266e-06
*RES
1 *9514:X *9678:D 29.7786 
*END

*D_NET *194 0.000559168
*CONN
*I *9679:D I *D sky130_fd_sc_hd__dfrtp_4
*I *9516:X O *D sky130_fd_sc_hd__clkbuf_1
*CAP
1 *9679:D 0.000169033
2 *9516:X 0.000169033
3 *9679:D *9664:CLK 8.85018e-05
4 *9679:D *9664:RESET_B 7.54868e-05
5 *9679:D *373:14 0
6 *9679:D *589:131 5.71124e-05
*RES
1 *9516:X *9679:D 30.4929 
*END

*D_NET *195 0.000349124
*CONN
*I *9680:D I *D sky130_fd_sc_hd__dfrtp_4
*I *9518:X O *D sky130_fd_sc_hd__clkbuf_1
*CAP
1 *9680:D 9.43588e-05
2 *9518:X 9.43588e-05
3 *9680:D *373:14 0.00010326
4 *9680:D *589:61 0
5 *9680:D *840:25 5.71472e-05
*RES
1 *9518:X *9680:D 29.475 
*END

*D_NET *196 0.000358105
*CONN
*I *9681:D I *D sky130_fd_sc_hd__dfrtp_4
*I *9520:X O *D sky130_fd_sc_hd__clkbuf_1
*CAP
1 *9681:D 0.000113235
2 *9520:X 0.000113235
3 *9681:D *9668:RESET_B 9.52112e-06
4 *9681:D *442:104 3.92854e-05
5 *9681:D *442:106 4.46186e-06
6 *9681:D *789:16 7.83659e-05
*RES
1 *9520:X *9681:D 29.4973 
*END

*D_NET *197 0.00045017
*CONN
*I *9682:D I *D sky130_fd_sc_hd__dfrtp_4
*I *9522:X O *D sky130_fd_sc_hd__clkbuf_1
*CAP
1 *9682:D 0.000225085
2 *9522:X 0.000225085
3 *9682:D *790:14 0
4 *9682:D *793:20 0
5 *9682:D *793:22 0
*RES
1 *9522:X *9682:D 31.3679 
*END

*D_NET *198 0.000333567
*CONN
*I *9683:D I *D sky130_fd_sc_hd__dfrtp_4
*I *9524:X O *D sky130_fd_sc_hd__clkbuf_1
*CAP
1 *9683:D 0.000105479
2 *9524:X 0.000105479
3 *9683:D *9524:A 6.54622e-05
4 *9683:D *9683:CLK 5.71472e-05
*RES
1 *9524:X *9683:D 20.9214 
*END

*D_NET *199 0.0010198
*CONN
*I *9684:D I *D sky130_fd_sc_hd__dfrtp_4
*I *9526:X O *D sky130_fd_sc_hd__clkbuf_1
*CAP
1 *9684:D 0.000182251
2 *9526:X 0.000182251
3 *9684:D *9497:A1 0.000349406
4 *9684:D *9526:A 8.70594e-05
5 *9684:D *9771:A 4.35452e-05
6 *9684:D *598:82 0.000175288
*RES
1 *9526:X *9684:D 25.1893 
*END

*D_NET *200 0.000319856
*CONN
*I *9685:D I *D sky130_fd_sc_hd__dfrtp_4
*I *9528:X O *D sky130_fd_sc_hd__clkbuf_1
*CAP
1 *9685:D 0.000117355
2 *9528:X 0.000117355
3 *9685:D *372:18 6.78055e-06
4 *9685:D *383:12 7.83659e-05
5 *9685:D *540:349 0
*RES
1 *9528:X *9685:D 29.6 
*END

*D_NET *201 0.000645628
*CONN
*I *9686:D I *D sky130_fd_sc_hd__dfrtp_1
*I *9530:X O *D sky130_fd_sc_hd__clkbuf_1
*CAP
1 *9686:D 0.000215055
2 *9530:X 0.000215055
3 *9686:D *9485:A1 7.46851e-05
4 *9686:D *9485:A2 3.69047e-06
5 *9686:D *9485:B1 1.97695e-05
6 *9686:D *9686:CLK 3.72932e-05
7 *9686:D *792:33 8.00806e-05
*RES
1 *9530:X *9686:D 31.6536 
*END

*D_NET *202 0.000755678
*CONN
*I *9687:D I *D sky130_fd_sc_hd__dfrtp_2
*I *9532:X O *D sky130_fd_sc_hd__clkbuf_1
*CAP
1 *9687:D 0.000215818
2 *9532:X 0.000215818
3 *9687:D *799:23 2.89114e-05
4 *9687:D *800:14 0
5 *9687:D *802:16 0.00029513
*RES
1 *9532:X *9687:D 31.9036 
*END

*D_NET *203 0.000402716
*CONN
*I *9688:D I *D sky130_fd_sc_hd__dfrtp_2
*I *9534:X O *D sky130_fd_sc_hd__clkbuf_1
*CAP
1 *9688:D 0.000128004
2 *9534:X 0.000128004
3 *9688:D *383:14 4.76707e-05
4 *9688:D *588:98 9.90367e-05
*RES
1 *9534:X *9688:D 21.3321 
*END

*D_NET *204 0.000380876
*CONN
*I *9689:D I *D sky130_fd_sc_hd__dfrtp_1
*I *9536:X O *D sky130_fd_sc_hd__clkbuf_1
*CAP
1 *9689:D 5.46174e-05
2 *9536:X 5.46174e-05
3 *9689:D *9689:RESET_B 6.65931e-05
4 *9689:D *589:20 5.52238e-05
5 *9689:D *802:10 0.000149824
*RES
1 *9536:X *9689:D 20.9214 
*END

*D_NET *205 0.00239636
*CONN
*I *9690:D I *D sky130_fd_sc_hd__dfrtp_1
*I *9538:X O *D sky130_fd_sc_hd__clkbuf_1
*CAP
1 *9690:D 0.000770968
2 *9538:X 0.000770968
3 *9690:D *9690:RESET_B 0.000614161
4 *9690:D *373:12 5.83233e-05
5 *9690:D *541:226 6.05161e-06
6 *9690:D *589:43 4.82865e-05
7 *9690:D *844:10 0
8 *9690:D *844:29 0.000127603
*RES
1 *9538:X *9690:D 40.1 
*END

*D_NET *206 0.000515586
*CONN
*I *9691:D I *D sky130_fd_sc_hd__dfrtp_2
*I *9540:X O *D sky130_fd_sc_hd__clkbuf_1
*CAP
1 *9691:D 0.000236997
2 *9540:X 0.000236997
3 *9691:D *9540:A 4.15914e-05
4 *9691:D *9691:RESET_B 0
5 *9691:D *540:79 0
*RES
1 *9540:X *9691:D 31.658 
*END

*D_NET *207 0.00125456
*CONN
*I *9692:D I *D sky130_fd_sc_hd__dfrtp_1
*I *9542:X O *D sky130_fd_sc_hd__clkbuf_1
*CAP
1 *9692:D 0.000405619
2 *9542:X 0.000405619
3 *9692:D *9489:A1 6.68971e-06
4 *9692:D *9489:B2 3.18676e-05
5 *9692:D *9490:A1 0
6 *9692:D *9542:A 6.66927e-05
7 *9692:D *9692:CLK 0
8 *9692:D *9693:CLK 0.00017309
9 *9692:D *540:120 7.83587e-05
10 *9692:D *740:187 8.66228e-05
*RES
1 *9542:X *9692:D 35.4571 
*END

*D_NET *208 0.000447576
*CONN
*I *9693:D I *D sky130_fd_sc_hd__dfrtp_2
*I *9544:X O *D sky130_fd_sc_hd__clkbuf_1
*CAP
1 *9693:D 0.00012567
2 *9544:X 0.00012567
3 *9693:D *9489:A1 5.19842e-06
4 *9693:D *9542:A 0.000148466
5 *9693:D *442:301 4.25716e-05
*RES
1 *9544:X *9693:D 30.1893 
*END

*D_NET *209 0.000395015
*CONN
*I *9694:D I *D sky130_fd_sc_hd__dfrtp_4
*I *9547:X O *D sky130_fd_sc_hd__clkbuf_1
*CAP
1 *9694:D 0.000127606
2 *9547:X 0.000127606
3 *9694:D *9694:CLK 8.66299e-05
4 *9694:D *9783:A 3.57366e-05
5 *9770:A *9694:D 1.74352e-05
*RES
1 *9547:X *9694:D 21.6536 
*END

*D_NET *210 0.00046267
*CONN
*I *9695:D I *D sky130_fd_sc_hd__dfrtp_4
*I *9549:X O *D sky130_fd_sc_hd__clkbuf_1
*CAP
1 *9695:D 0.00019467
2 *9549:X 0.00019467
3 *9695:D *9476:B2 3.06878e-06
4 *9695:D *9695:CLK 7.02611e-05
*RES
1 *9549:X *9695:D 21.3321 
*END

*D_NET *211 0.00120763
*CONN
*I *9696:D I *D sky130_fd_sc_hd__dfrtp_2
*I *9551:X O *D sky130_fd_sc_hd__clkbuf_1
*CAP
1 *9696:D 0.000332017
2 *9551:X 0.000332017
3 *9696:D *9477:A1 9.90431e-05
4 *9696:D *9551:A 0.000202492
5 *9696:D *826:22 0.000242056
*RES
1 *9551:X *9696:D 34.2607 
*END

*D_NET *212 0.000997563
*CONN
*I *9697:D I *D sky130_fd_sc_hd__dfrtp_2
*I *9553:X O *D sky130_fd_sc_hd__clkbuf_1
*CAP
1 *9697:D 0.000351933
2 *9553:X 0.000351933
3 *9697:D *9714:D 0
4 *9697:D *347:28 0.000150847
5 *9697:D *592:81 0.00014285
*RES
1 *9553:X *9697:D 34.0821 
*END

*D_NET *213 0.000360376
*CONN
*I *9698:D I *D sky130_fd_sc_hd__dfrtp_2
*I *9555:X O *D sky130_fd_sc_hd__clkbuf_1
*CAP
1 *9698:D 0.000131172
2 *9555:X 0.000131172
3 *9698:D *9714:CLK 2.89114e-05
4 *9698:D *592:59 6.91207e-05
*RES
1 *9555:X *9698:D 20.283 
*END

*D_NET *214 0.00092046
*CONN
*I *9699:D I *D sky130_fd_sc_hd__dfrtp_2
*I *9557:X O *D sky130_fd_sc_hd__clkbuf_1
*CAP
1 *9699:D 0.000198394
2 *9557:X 0.000198394
3 *9699:D *9479:B2 1.15172e-05
4 *9699:D *9557:A 2.56694e-05
5 *9699:D *9633:CLK 0.000295974
6 *9699:D *592:20 1.07719e-05
7 *9699:D *738:132 0
8 *9699:D *863:88 0.000179739
*RES
1 *9557:X *9699:D 32.4393 
*END

*D_NET *215 0.00163277
*CONN
*I *9700:D I *D sky130_fd_sc_hd__dfrtp_4
*I *9559:X O *D sky130_fd_sc_hd__clkbuf_1
*CAP
1 *9700:D 0.000432531
2 *9559:X 0.000432531
3 *9700:D *9480:A2 5.52302e-05
4 *9700:D *9559:A 0.000348207
5 *9700:D *9561:A 0
6 *9700:D *9700:CLK 5.41609e-05
7 *9700:D *537:360 8.00806e-05
8 *9700:D *539:37 2.95726e-05
9 *9700:D *566:44 7.83587e-05
10 *9654:D *9700:D 0.000122101
*RES
1 *9559:X *9700:D 35.7786 
*END

*D_NET *216 0.000384042
*CONN
*I *9701:D I *D sky130_fd_sc_hd__dfrtp_1
*I *9561:X O *D sky130_fd_sc_hd__clkbuf_1
*CAP
1 *9701:D 0.000163957
2 *9561:X 0.000163957
3 *9701:D *9561:A 3.81416e-06
4 *9701:D *9701:CLK 5.23142e-05
*RES
1 *9561:X *9701:D 20.7964 
*END

*D_NET *217 0.000247661
*CONN
*I *9702:D I *D sky130_fd_sc_hd__dfrtp_2
*I *9563:X O *D sky130_fd_sc_hd__clkbuf_1
*CAP
1 *9702:D 8.47037e-05
2 *9563:X 8.47037e-05
3 *9702:D *9702:CLK 0
4 *9702:D *566:64 2.28335e-05
5 *166:18 *9702:D 5.54204e-05
*RES
1 *9563:X *9702:D 29.2429 
*END

*D_NET *218 0.000392461
*CONN
*I *9703:D I *D sky130_fd_sc_hd__dfrtp_1
*I *9565:X O *D sky130_fd_sc_hd__clkbuf_1
*CAP
1 *9703:D 0.000151058
2 *9565:X 0.000151058
3 *9703:D *9703:CLK 1.1979e-05
4 *9703:D *9832:A 0
5 *9703:D *704:8 7.83659e-05
*RES
1 *9565:X *9703:D 30.0107 
*END

*D_NET *219 0.000309974
*CONN
*I *9704:D I *D sky130_fd_sc_hd__dfrtp_1
*I *9567:X O *D sky130_fd_sc_hd__clkbuf_1
*CAP
1 *9704:D 0.000107729
2 *9567:X 0.000107729
3 *9704:D *9566:A1 5.52302e-05
4 *9704:D *9567:A 3.92854e-05
5 *9704:D *566:158 0
6 *9704:D *860:25 0
*RES
1 *9567:X *9704:D 29.475 
*END

*D_NET *220 0.00112456
*CONN
*I *9705:D I *D sky130_fd_sc_hd__dfrtp_1
*I *9569:X O *D sky130_fd_sc_hd__clkbuf_1
*CAP
1 *9705:D 0.000278619
2 *9569:X 0.000278619
3 *9705:D *9570:A1 9.90367e-05
4 *9705:D *9574:A1 0.000341518
5 *9705:D *9574:S 9.90367e-05
6 *9705:D *9705:CLK 2.77289e-05
*RES
1 *9569:X *9705:D 24.533 
*END

*D_NET *221 0.000901029
*CONN
*I *9706:D I *D sky130_fd_sc_hd__dfrtp_1
*I *9571:X O *D sky130_fd_sc_hd__clkbuf_1
*CAP
1 *9706:D 0.00028159
2 *9571:X 0.00028159
3 *9706:D *9706:CLK 1.73305e-05
4 *9706:D *9706:RESET_B 5.09962e-05
5 *9706:D *566:164 0
6 *9706:D *566:172 0
7 *9706:D *593:67 0.000269521
*RES
1 *9571:X *9706:D 33.0062 
*END

*D_NET *222 0.000558813
*CONN
*I *9707:D I *D sky130_fd_sc_hd__dfrtp_1
*I *9573:X O *D sky130_fd_sc_hd__clkbuf_1
*CAP
1 *9707:D 0.000189129
2 *9573:X 0.000189129
3 *9707:D *9570:A0 6.25544e-05
4 *9707:D *9707:CLK 3.18676e-05
5 *9707:D *9795:A 0
6 *9707:D *9842:A 6.05161e-06
7 *9707:D *593:12 8.00806e-05
*RES
1 *9573:X *9707:D 31.2607 
*END

*D_NET *223 0.000825769
*CONN
*I *9708:D I *D sky130_fd_sc_hd__dfrtp_1
*I *9575:X O *D sky130_fd_sc_hd__clkbuf_1
*CAP
1 *9708:D 0.000312262
2 *9575:X 0.000312262
3 *9708:D *9575:A 9.86999e-05
4 *9708:D *9704:RESET_B 0.000102545
5 *9708:D *362:10 0
6 *9708:D *860:8 0
7 *9708:D *860:25 0
*RES
1 *9575:X *9708:D 33.7964 
*END

*D_NET *224 0.000330806
*CONN
*I *9709:D I *D sky130_fd_sc_hd__dfrtp_2
*I *9577:X O *D sky130_fd_sc_hd__clkbuf_1
*CAP
1 *9709:D 0.000165403
2 *9577:X 0.000165403
*RES
1 *9577:X *9709:D 29.8857 
*END

*D_NET *225 0.0013485
*CONN
*I *9710:D I *D sky130_fd_sc_hd__dfrtp_4
*I *9579:X O *D sky130_fd_sc_hd__clkbuf_1
*CAP
1 *9710:D 0.00043526
2 *9579:X 0.00043526
3 *9710:D *9237:A 0
4 *9710:D *9237:B 0.000249486
5 *9710:D *9578:A1 0
6 *9710:D *9579:A 0
7 *9710:D *9671:D 0.000159038
8 *9710:D *9710:CLK 2.89114e-05
9 *9710:D *598:16 4.05411e-05
10 *187:24 *9710:D 0
*RES
1 *9579:X *9710:D 36.9036 
*END

*D_NET *226 0.000455661
*CONN
*I *9823:A I *D sky130_fd_sc_hd__dlygate4sd3_1
*I *9580:X O *D sky130_fd_sc_hd__o21a_1
*CAP
1 *9823:A 9.35901e-05
2 *9580:X 9.35901e-05
3 *9823:A *9245:B2 0.000132753
4 *9823:A *390:16 9.99644e-06
5 *9823:A *743:96 0.000125731
*RES
1 *9580:X *9823:A 29.7786 
*END

*D_NET *227 0.00338073
*CONN
*I *9064:B I *D sky130_fd_sc_hd__nand2_1
*I *9335:A2 I *D sky130_fd_sc_hd__a211oi_1
*I *9336:A2 I *D sky130_fd_sc_hd__o21ba_1
*I *9063:X O *D sky130_fd_sc_hd__and3_1
*CAP
1 *9064:B 2.23854e-05
2 *9335:A2 0.00020782
3 *9336:A2 8.30972e-05
4 *9063:X 0.000341346
5 *227:25 0.000478596
6 *227:8 0.000672834
7 *9064:B *612:54 0
8 *9335:A2 *9328:A1 9.25014e-06
9 *9335:A2 *9329:A2 0
10 *9335:A2 *9334:A1 0.000148196
11 *9335:A2 *9334:B1 3.18676e-05
12 *9335:A2 *9335:A1 2.59355e-05
13 *9335:A2 *9335:B1 7.83659e-05
14 *9335:A2 *228:22 2.16719e-05
15 *9335:A2 *612:54 9.90431e-05
16 *9335:A2 *613:19 0.000101545
17 *9335:A2 *730:18 1.39841e-05
18 *9336:A2 *9063:A 5.80706e-06
19 *9336:A2 *9336:B1_N 0
20 *9336:A2 *9807:A 0
21 *227:8 *9063:C 1.32552e-05
22 *227:8 *9336:A1 8.86413e-05
23 *227:8 *9816:A 3.48705e-05
24 *227:8 *612:37 0.000184745
25 *227:25 *9064:A 0.000144773
26 *227:25 *9334:B1 4.88637e-05
27 *227:25 *612:37 0
28 *227:25 *612:54 0.000217141
29 *227:25 *663:31 0.00030669
*RES
1 *9063:X *227:8 18.4429 
2 *227:8 *9336:A2 14.8357 
3 *227:8 *227:25 11.3214 
4 *227:25 *9335:A2 23.3714 
5 *227:25 *9064:B 9.72857 
*END

*D_NET *228 0.00330059
*CONN
*I *9328:A2 I *D sky130_fd_sc_hd__a21oi_1
*I *9065:B I *D sky130_fd_sc_hd__nor2_1
*I *9064:Y O *D sky130_fd_sc_hd__nand2_1
*CAP
1 *9328:A2 0.000115601
2 *9065:B 0.000251458
3 *9064:Y 0.000335399
4 *228:22 0.000702458
5 *9065:B *9330:A1 1.98839e-05
6 *9065:B *9330:B1 0.000420197
7 *9065:B *9584:RESET_B 0.000115082
8 *9328:A2 *9328:A1 0.00030926
9 *9328:A2 *9584:CLK 3.18676e-05
10 *228:22 *9063:A 0.000125547
11 *228:22 *9329:A1 0.000140933
12 *228:22 *9330:B1 7.49901e-05
13 *228:22 *9335:A1 0.000182694
14 *228:22 *9335:B1 7.83659e-05
15 *228:22 *9335:C1 1.02504e-05
16 *228:22 *9584:RESET_B 4.46186e-06
17 *228:22 *612:54 5.52302e-05
18 *228:22 *613:19 1.69115e-05
19 *9335:A2 *228:22 2.16719e-05
20 *9581:D *9328:A2 3.14629e-05
21 *9584:D *9328:A2 6.86693e-05
22 *9819:A *9065:B 5.29554e-05
23 *9819:A *228:22 0.000123718
24 *98:10 *9065:B 1.15172e-05
*RES
1 *9064:Y *228:22 30.8893 
2 *228:22 *9065:B 20.6929 
3 *228:22 *9328:A2 17.2286 
*END

*D_NET *229 0.000342868
*CONN
*I *9068:A I *D sky130_fd_sc_hd__xnor2_4
*I *9066:Y O *D sky130_fd_sc_hd__xnor2_2
*CAP
1 *9068:A 0.000121575
2 *9066:Y 0.000121575
3 *9068:A *9068:B 0
4 *9068:A *9484:A1 5.71472e-05
5 *9068:A *266:8 4.25716e-05
*RES
1 *9066:Y *9068:A 29.7786 
*END

*D_NET *230 0.000564014
*CONN
*I *9068:B I *D sky130_fd_sc_hd__xnor2_4
*I *9067:X O *D sky130_fd_sc_hd__xor2_2
*CAP
1 *9068:B 0.000244545
2 *9067:X 0.000244545
3 *9068:B *9685:RESET_B 0
4 *9068:B *266:8 0
5 *9068:B *372:18 7.49239e-05
6 *9068:B *794:12 0
7 *9068:A *9068:B 0
*RES
1 *9067:X *9068:B 32.2786 
*END

*D_NET *231 0.00446754
*CONN
*I *9072:A I *D sky130_fd_sc_hd__xnor2_4
*I *9079:A I *D sky130_fd_sc_hd__xnor2_1
*I *9113:A I *D sky130_fd_sc_hd__xnor2_2
*I *9068:Y O *D sky130_fd_sc_hd__xnor2_4
*CAP
1 *9072:A 7.39216e-05
2 *9079:A 0.000103695
3 *9113:A 2.23854e-05
4 *9068:Y 0.000414737
5 *231:16 0.000269263
6 *231:10 0.000631841
7 *9072:A *337:216 0.000183713
8 *9079:A *241:10 0.000148189
9 *9079:A *256:14 0.000146474
10 *9079:A *344:138 4.35306e-05
11 *9079:A *757:34 0.000123617
12 *9113:A *344:138 0
13 *231:10 *232:18 0.000625411
14 *231:10 *266:8 0.000973816
15 *231:10 *540:370 2.22999e-05
16 *231:10 *795:60 0
17 *231:16 *9104:A 3.34295e-05
18 *231:16 *9113:B 5.52302e-05
19 *231:16 *248:10 7.95674e-05
20 *231:16 *266:8 0.000222524
21 *231:16 *344:138 6.4443e-05
22 *231:16 *757:34 0.000229456
23 *231:16 *795:60 0
*RES
1 *9068:Y *231:10 27.3179 
2 *231:10 *231:16 9.83929 
3 *231:16 *9113:A 9.72857 
4 *231:16 *9079:A 21.6036 
5 *231:10 *9072:A 15.5679 
*END

*D_NET *232 0.00474101
*CONN
*I *9078:A I *D sky130_fd_sc_hd__xor2_2
*I *9071:A I *D sky130_fd_sc_hd__xnor2_2
*I *9069:Y O *D sky130_fd_sc_hd__xnor2_4
*CAP
1 *9078:A 0.000107521
2 *9071:A 0
3 *9069:Y 0.00140133
4 *232:18 0.00150885
5 *9078:A *9071:B 0.000100625
6 *232:18 *9103:B 0.000306082
7 *232:18 *9537:A0 5.03694e-05
8 *232:18 *266:8 6.31628e-05
9 *232:18 *372:18 0
10 *232:18 *373:12 0
11 *232:18 *541:91 0
12 *232:18 *541:366 0
13 *232:18 *793:10 0.00015134
14 *232:18 *793:20 0.000171368
15 *232:18 *795:22 0.000104236
16 *232:18 *795:48 0
17 *232:18 *795:50 0
18 *232:18 *795:60 0
19 *232:18 *803:12 4.98872e-05
20 *232:18 *835:28 0.000100823
21 *231:10 *232:18 0.000625411
*RES
1 *9069:Y *232:18 49.1929 
2 *232:18 *9071:A 9.3 
3 *232:18 *9078:A 11.4786 
*END

*D_NET *233 0.00199775
*CONN
*I *9071:B I *D sky130_fd_sc_hd__xnor2_2
*I *9070:Y O *D sky130_fd_sc_hd__xnor2_2
*CAP
1 *9071:B 0.00074994
2 *9070:Y 0.00074994
3 *9071:B *9084:A 0.00011982
4 *9071:B *9084:B 0.000185541
5 *9071:B *241:10 9.18867e-05
6 *9078:A *9071:B 0.000100625
*RES
1 *9070:Y *9071:B 31.4929 
*END

*D_NET *234 0.000528356
*CONN
*I *9072:B I *D sky130_fd_sc_hd__xnor2_4
*I *9071:Y O *D sky130_fd_sc_hd__xnor2_2
*CAP
1 *9072:B 0.000264178
2 *9071:Y 0.000264178
3 *9072:B *266:8 0
4 *9072:B *740:79 0
*RES
1 *9071:Y *9072:B 31.0107 
*END

*D_NET *235 0.00392317
*CONN
*I *9097:A I *D sky130_fd_sc_hd__xor2_2
*I *9081:A I *D sky130_fd_sc_hd__xnor2_2
*I *9072:Y O *D sky130_fd_sc_hd__xnor2_4
*CAP
1 *9097:A 3.12063e-05
2 *9081:A 0.000412896
3 *9072:Y 0.000749202
4 *235:12 0.00119331
5 *9081:A *9081:B 0.000184745
6 *9081:A *821:84 0.000391127
7 *9097:A *821:84 9.90431e-05
8 *235:12 *9080:B 5.33882e-05
9 *235:12 *9095:B 0
10 *235:12 *9097:B 0
11 *235:12 *9249:B2 0.000100831
12 *235:12 *9457:A0 0.000137855
13 *235:12 *9457:S 6.53781e-05
14 *235:12 *9827:A 7.83659e-05
15 *235:12 *267:10 0
16 *235:12 *740:67 5.52238e-05
17 *235:12 *794:18 0.000370603
*RES
1 *9072:Y *235:12 35.05 
2 *235:12 *9081:A 18.4786 
3 *235:12 *9097:A 10.2464 
*END

*D_NET *236 0.00408244
*CONN
*I *9103:A I *D sky130_fd_sc_hd__xnor2_4
*I *9075:A I *D sky130_fd_sc_hd__xnor2_4
*I *9073:X O *D sky130_fd_sc_hd__xor2_4
*CAP
1 *9103:A 0.000203245
2 *9075:A 0.00105826
3 *9073:X 0.0012615
4 *9075:A *9075:B 0
5 *9075:A *9499:A1 0.000449546
6 *9075:A *9841:A 0.000342694
7 *9075:A *348:125 0.000118345
8 *9075:A *348:134 0.000116746
9 *9075:A *348:161 0.000324344
10 *9075:A *793:20 1.02806e-05
11 *9103:A *9103:B 0
12 *9103:A *348:161 0.000101545
13 *9103:A *541:366 9.59321e-05
14 *9103:A *793:22 0
*RES
1 *9073:X *9075:A 28.6839 
2 *9073:X *9103:A 22.9786 
*END

*D_NET *237 0.00166123
*CONN
*I *9075:B I *D sky130_fd_sc_hd__xnor2_4
*I *9074:X O *D sky130_fd_sc_hd__xor2_4
*CAP
1 *9075:B 0.000454858
2 *9074:X 0.000454858
3 *9075:B *9498:A1 0
4 *9075:B *9671:RESET_B 9.71197e-05
5 *9075:B *9756:A 0.000271345
6 *9075:B *238:8 5.80706e-06
7 *9075:B *348:125 2.32517e-05
8 *9075:B *541:41 4.88104e-05
9 *9075:B *598:10 0
10 *9075:B *740:115 1.52978e-05
11 *9075:B *740:131 0.000136185
12 *9075:A *9075:B 0
13 *9772:A *9075:B 7.60306e-05
14 *187:24 *9075:B 7.76647e-05
*RES
1 *9074:X *9075:B 28.8268 
*END

*D_NET *238 0.0102544
*CONN
*I *9076:B I *D sky130_fd_sc_hd__xnor2_1
*I *9121:A I *D sky130_fd_sc_hd__xor2_1
*I *9109:B I *D sky130_fd_sc_hd__xnor2_1
*I *9075:Y O *D sky130_fd_sc_hd__xnor2_4
*CAP
1 *9076:B 1.40355e-05
2 *9121:A 0.000403926
3 *9109:B 0.000311751
4 *9075:Y 0.00103802
5 *238:14 0.00162321
6 *238:8 0.00195959
7 *9076:B *9148:A 5.52302e-05
8 *9076:B *820:65 2.89114e-05
9 *9109:B *9123:B 5.80706e-06
10 *9109:B *337:46 0.000368126
11 *9109:B *815:10 0
12 *9121:A *9117:B 0
13 *9121:A *9121:B 5.04705e-05
14 *9121:A *9123:A 0.000195386
15 *9121:A *286:10 0.000229456
16 *238:8 *9481:A 4.85029e-05
17 *238:8 *9560:A0 0
18 *238:8 *9578:S 9.7478e-05
19 *238:8 *9710:CLK 0.000179854
20 *238:8 *441:14 0.000264715
21 *238:8 *584:160 0.000324321
22 *238:8 *597:12 4.23086e-05
23 *238:8 *740:10 6.58184e-05
24 *238:8 *740:101 0.000221228
25 *238:8 *740:115 0
26 *238:8 *756:10 0.00108699
27 *238:8 *796:20 2.05938e-05
28 *238:8 *824:8 0
29 *238:14 *9123:B 0.000168983
30 *238:14 *9246:A 0
31 *238:14 *9247:A 0
32 *238:14 *9454:A0 0
33 *238:14 *244:12 0
34 *238:14 *337:46 4.52236e-05
35 *238:14 *369:261 0
36 *238:14 *388:16 0
37 *238:14 *756:10 0.00117817
38 *9075:B *238:8 5.80706e-06
39 *187:24 *238:8 0.000220455
*RES
1 *9075:Y *238:8 42.4607 
2 *238:8 *238:14 20.5179 
3 *238:14 *9109:B 20.2464 
4 *238:14 *9121:A 22.175 
5 *238:8 *9076:B 14.3357 
*END

*D_NET *239 0.000381285
*CONN
*I *9080:A I *D sky130_fd_sc_hd__xnor2_2
*I *9076:Y O *D sky130_fd_sc_hd__xnor2_1
*CAP
1 *9080:A 7.0577e-05
2 *9076:Y 7.0577e-05
3 *9080:A *319:14 0.000102197
4 *9080:A *820:65 0.000137934
*RES
1 *9076:Y *9080:A 21.225 
*END

*D_NET *240 0.00113703
*CONN
*I *9078:B I *D sky130_fd_sc_hd__xor2_2
*I *9085:A I *D sky130_fd_sc_hd__xnor2_2
*I *9077:X O *D sky130_fd_sc_hd__xor2_2
*CAP
1 *9078:B 0
2 *9085:A 7.43419e-05
3 *9077:X 0.000162801
4 *240:8 0.000237143
5 *9085:A *241:10 7.38526e-05
6 *9085:A *793:26 0.000172021
7 *9085:A *795:60 0
8 *240:8 *9083:A 5.26184e-05
9 *240:8 *793:26 0.000364253
10 *240:8 *795:60 0
*RES
1 *9077:X *240:8 18.4786 
2 *240:8 *9085:A 16.05 
3 *240:8 *9078:B 4.5 
*END

*D_NET *241 0.00180832
*CONN
*I *9079:B I *D sky130_fd_sc_hd__xnor2_1
*I *9086:B I *D sky130_fd_sc_hd__xnor2_2
*I *9078:X O *D sky130_fd_sc_hd__xor2_2
*CAP
1 *9079:B 0
2 *9086:B 8.01151e-05
3 *9078:X 0.00038657
4 *241:10 0.000466685
5 *9086:B *9086:A 3.18676e-05
6 *9086:B *319:24 5.52238e-05
7 *9086:B *793:26 6.26559e-05
8 *9086:B *795:60 9.27129e-05
9 *241:10 *256:14 0.000113887
10 *241:10 *793:26 0.000144372
11 *241:10 *795:60 6.03001e-05
12 *9071:B *241:10 9.18867e-05
13 *9079:A *241:10 0.000148189
14 *9085:A *241:10 7.38526e-05
*RES
1 *9078:X *241:10 23.4964 
2 *241:10 *9086:B 16.5857 
3 *241:10 *9079:B 13.8 
*END

*D_NET *242 0.00332063
*CONN
*I *9080:B I *D sky130_fd_sc_hd__xnor2_2
*I *9079:Y O *D sky130_fd_sc_hd__xnor2_1
*CAP
1 *9080:B 0.00096559
2 *9079:Y 0.00096559
3 *9080:B *9249:B2 0.000266513
4 *9080:B *9458:A 9.7659e-05
5 *9080:B *9637:RESET_B 0.000137447
6 *9080:B *256:14 7.3237e-05
7 *9080:B *319:14 0.000258102
8 *9080:B *794:18 0.00010326
9 *9080:B *820:65 0.000399841
10 *235:12 *9080:B 5.33882e-05
*RES
1 *9079:Y *9080:B 48.4036 
*END

*D_NET *243 0.00252609
*CONN
*I *9081:B I *D sky130_fd_sc_hd__xnor2_2
*I *9116:B I *D sky130_fd_sc_hd__xor2_1
*I *9080:Y O *D sky130_fd_sc_hd__xnor2_2
*CAP
1 *9081:B 3.14135e-05
2 *9116:B 0.000154653
3 *9080:Y 0.000410183
4 *243:8 0.000596249
5 *9081:B *821:84 0.000184745
6 *9116:B *9088:A 2.89016e-05
7 *9116:B *271:8 0
8 *9116:B *743:96 0.000217877
9 *243:8 *9635:CLK 2.56694e-05
10 *243:8 *9635:RESET_B 0
11 *243:8 *271:8 0
12 *243:8 *277:8 0
13 *243:8 *739:333 0
14 *243:8 *743:96 0.000691653
15 *9081:A *9081:B 0.000184745
*RES
1 *9080:Y *243:8 22.7286 
2 *243:8 *9116:B 17.1929 
3 *243:8 *9081:B 15.5679 
*END

*D_NET *244 0.00148959
*CONN
*I *9082:B I *D sky130_fd_sc_hd__xnor2_2
*I *9122:B I *D sky130_fd_sc_hd__xnor2_1
*I *9081:Y O *D sky130_fd_sc_hd__xnor2_2
*CAP
1 *9082:B 0
2 *9122:B 0.000166018
3 *9081:Y 0.000149214
4 *244:12 0.000315232
5 *9122:B *9082:A 0.000266473
6 *9122:B *347:101 0
7 *9122:B *739:333 0.000268396
8 *9122:B *756:10 0.000170299
9 *244:12 *388:16 0.000143188
10 *244:12 *821:84 1.07719e-05
11 *238:14 *244:12 0
*RES
1 *9081:Y *244:12 20.7821 
2 *244:12 *9122:B 23.1393 
3 *244:12 *9082:B 9.3 
*END

*D_NET *245 0.00186286
*CONN
*I *9088:A I *D sky130_fd_sc_hd__xnor2_2
*I *9082:Y O *D sky130_fd_sc_hd__xnor2_2
*CAP
1 *9088:A 0.000825796
2 *9082:Y 0.000825796
3 *9088:A *9116:A 0.00014183
4 *9088:A *279:12 4.05411e-05
5 *9116:B *9088:A 2.89016e-05
*RES
1 *9082:Y *9088:A 31.475 
*END

*D_NET *246 0.00160816
*CONN
*I *9084:B I *D sky130_fd_sc_hd__xnor2_1
*I *9093:A I *D sky130_fd_sc_hd__xnor2_2
*I *9083:X O *D sky130_fd_sc_hd__xor2_2
*CAP
1 *9084:B 2.83708e-05
2 *9093:A 0.000153741
3 *9083:X 0.000143542
4 *246:10 0.000325653
5 *9084:B *9084:A 0.000185541
6 *9093:A *9085:B 0
7 *9093:A *337:216 1.38167e-05
8 *9093:A *791:79 0
9 *246:10 *1108:DIODE 0.00010326
10 *246:10 *9485:B1 0.000228931
11 *246:10 *541:382 0.000228931
12 *246:10 *789:20 0
13 *246:10 *791:64 1.08359e-05
14 *9071:B *9084:B 0.000185541
*RES
1 *9083:X *246:10 18.2286 
2 *246:10 *9093:A 16.3536 
3 *246:10 *9084:B 15.5679 
*END

*D_NET *247 0.000719213
*CONN
*I *9085:B I *D sky130_fd_sc_hd__xnor2_2
*I *9084:Y O *D sky130_fd_sc_hd__xnor2_1
*CAP
1 *9085:B 0.00011548
2 *9084:Y 0.00011548
3 *9085:B *256:14 0.000184246
4 *9085:B *337:216 0.000182592
5 *9085:B *790:24 0.000121415
6 *9093:A *9085:B 0
*RES
1 *9084:Y *9085:B 31.0107 
*END

*D_NET *248 0.00304316
*CONN
*I *9101:B I *D sky130_fd_sc_hd__xor2_1
*I *9087:A I *D sky130_fd_sc_hd__xor2_1
*I *9085:Y O *D sky130_fd_sc_hd__xnor2_2
*CAP
1 *9101:B 0.000211051
2 *9087:A 0.00025031
3 *9085:Y 0.000504694
4 *248:10 0.000966055
5 *9087:A *9087:B 0.000115966
6 *9087:A *9457:A1 0
7 *9087:A *249:10 1.46624e-05
8 *9087:A *611:20 9.31794e-05
9 *9101:B *9106:A 0.000274288
10 *9101:B *322:28 4.70078e-05
11 *248:10 *9094:B 0.000214856
12 *248:10 *9104:A 0
13 *248:10 *9457:A1 0
14 *248:10 *249:10 0.000104258
15 *248:10 *337:216 2.89114e-05
16 *248:10 *795:60 0.00013835
17 *231:16 *248:10 7.95674e-05
*RES
1 *9085:Y *248:10 25.9964 
2 *248:10 *9087:A 18.8357 
3 *248:10 *9101:B 18.05 
*END

*D_NET *249 0.00194257
*CONN
*I *9090:A I *D sky130_fd_sc_hd__xnor2_2
*I *9087:B I *D sky130_fd_sc_hd__xor2_1
*I *9086:Y O *D sky130_fd_sc_hd__xnor2_2
*CAP
1 *9090:A 0
2 *9087:B 9.02995e-05
3 *9086:Y 0.000389698
4 *249:10 0.000479997
5 *9087:B *9457:A1 0
6 *9087:B *258:8 0
7 *9087:B *611:20 5.52238e-05
8 *9087:B *795:60 0.000197991
9 *249:10 *319:14 7.90536e-05
10 *249:10 *319:24 7.29283e-05
11 *249:10 *795:60 0.000342488
12 *9087:A *9087:B 0.000115966
13 *9087:A *249:10 1.46624e-05
14 *248:10 *249:10 0.000104258
*RES
1 *9086:Y *249:10 21.5857 
2 *249:10 *9087:B 16.8893 
3 *249:10 *9090:A 13.8 
*END

*D_NET *250 0.0010808
*CONN
*I *9088:B I *D sky130_fd_sc_hd__xnor2_2
*I *9087:X O *D sky130_fd_sc_hd__xor2_1
*CAP
1 *9088:B 0.000434679
2 *9087:X 0.000434679
3 *9088:B *251:10 0.000142856
4 *9088:B *258:8 0
5 *9088:B *795:60 6.85873e-05
*RES
1 *9087:X *9088:B 35.4929 
*END

*D_NET *251 0.00396582
*CONN
*I *9100:A I *D sky130_fd_sc_hd__nor2_1
*I *9126:A I *D sky130_fd_sc_hd__xnor2_1
*I *9132:B1 I *D sky130_fd_sc_hd__a2bb2o_1
*I *9088:Y O *D sky130_fd_sc_hd__xnor2_2
*CAP
1 *9100:A 1.67089e-05
2 *9126:A 0.000241916
3 *9132:B1 0.000119945
4 *9088:Y 0.000322574
5 *251:14 0.000596335
6 *251:10 0.000573757
7 *9100:A *369:280 5.33005e-05
8 *9100:A *376:16 2.89114e-05
9 *9126:A *9118:A1 0
10 *9126:A *9127:A0 0
11 *9126:A *9129:B 5.32105e-05
12 *9126:A *9131:C 0.000166485
13 *9126:A *9133:B 0.000100625
14 *9126:A *260:18 0.000215759
15 *9126:A *270:14 0.000183726
16 *9126:A *275:10 0.000268403
17 *9126:A *291:8 4.08796e-05
18 *9132:B1 *9120:S 1.21258e-05
19 *9132:B1 *9129:B 0.000158893
20 *9132:B1 *9132:A1_N 0.000123314
21 *9132:B1 *9133:C 1.85641e-05
22 *9132:B1 *9133:D 5.30637e-06
23 *251:10 *260:10 0.00018783
24 *251:10 *296:14 0
25 *251:14 *9120:S 0.000149421
26 *251:14 *9133:A 3.92854e-05
27 *251:14 *9133:B 0
28 *251:14 *9133:C 0
29 *251:14 *9133:D 3.5707e-05
30 *251:14 *260:10 3.28142e-05
31 *251:14 *260:18 1.76606e-05
32 *251:14 *296:14 5.9503e-05
33 *9088:B *251:10 0.000142856
*RES
1 *9088:Y *251:10 20.6571 
2 *251:10 *251:14 5.51786 
3 *251:14 *9132:B1 17.2286 
4 *251:14 *9126:A 21.8357 
5 *251:10 *9100:A 14.3357 
*END

*D_NET *252 0.00362533
*CONN
*I *9090:B I *D sky130_fd_sc_hd__xnor2_2
*I *9105:A I *D sky130_fd_sc_hd__xnor2_1
*I *9089:X O *D sky130_fd_sc_hd__xor2_2
*CAP
1 *9090:B 0
2 *9105:A 0.00035186
3 *9089:X 0.000309325
4 *252:6 0.000661185
5 *9105:A *9106:A 9.90431e-05
6 *9105:A *9106:B 0.00020761
7 *9105:A *9867:A 0.000271345
8 *9105:A *269:8 2.37761e-05
9 *9105:A *322:28 9.90431e-05
10 *9105:A *736:16 4.87854e-05
11 *9105:A *793:26 0
12 *9105:A *795:60 0.000382581
13 *252:6 *9106:A 0.000226687
14 *252:6 *322:28 0.000944089
*RES
1 *9089:X *252:6 18.4607 
2 *252:6 *9105:A 28.4607 
3 *252:6 *9090:B 9.3 
*END

*D_NET *253 0.00224049
*CONN
*I *9095:A I *D sky130_fd_sc_hd__xnor2_2
*I *9096:B I *D sky130_fd_sc_hd__xnor2_1
*I *9090:Y O *D sky130_fd_sc_hd__xnor2_2
*CAP
1 *9095:A 0
2 *9096:B 0.000155926
3 *9090:Y 0.000205811
4 *253:12 0.000361738
5 *9096:B *9105:B 0.000139913
6 *9096:B *9108:B 0.000576118
7 *9096:B *611:20 0.000381775
8 *253:12 *9457:A1 6.42242e-05
9 *253:12 *322:28 0.000227539
10 *253:12 *821:84 0.000127446
*RES
1 *9090:Y *253:12 22.1214 
2 *253:12 *9096:B 16.425 
3 *253:12 *9095:A 9.3 
*END

*D_NET *254 0.000355864
*CONN
*I *9092:B I *D sky130_fd_sc_hd__xnor2_1
*I *9091:X O *D sky130_fd_sc_hd__xor2_1
*CAP
1 *9092:B 6.49661e-05
2 *9091:X 6.49661e-05
3 *9092:B *905:DIODE 2.59355e-05
4 *9092:B *9093:B 5.71472e-05
5 *9092:B *791:92 0.00014285
*RES
1 *9091:X *9092:B 20.3679 
*END

*D_NET *255 0.000788798
*CONN
*I *9093:B I *D sky130_fd_sc_hd__xnor2_2
*I *9092:Y O *D sky130_fd_sc_hd__xnor2_1
*CAP
1 *9093:B 0.000239047
2 *9092:Y 0.000239047
3 *9093:B *791:79 9.90367e-05
4 *9093:B *791:92 5.97496e-05
5 *9093:B *792:49 9.47712e-05
6 *9092:B *9093:B 5.71472e-05
*RES
1 *9092:Y *9093:B 23.2607 
*END

*D_NET *256 0.00385816
*CONN
*I *9104:B I *D sky130_fd_sc_hd__xnor2_2
*I *9094:B I *D sky130_fd_sc_hd__xor2_1
*I *9093:Y O *D sky130_fd_sc_hd__xnor2_2
*CAP
1 *9104:B 0
2 *9094:B 0.000521354
3 *9093:Y 0.000491816
4 *256:14 0.00101317
5 *9094:B *9104:A 5.80706e-06
6 *9094:B *9242:A1 0.000235341
7 *9094:B *9457:A1 0
8 *9094:B *267:10 0
9 *256:14 *9249:B2 0.000266479
10 *256:14 *337:216 0.000228949
11 *256:14 *795:60 0.000362538
12 *9079:A *256:14 0.000146474
13 *9080:B *256:14 7.3237e-05
14 *9085:B *256:14 0.000184246
15 *241:10 *256:14 0.000113887
16 *248:10 *9094:B 0.000214856
*RES
1 *9093:Y *256:14 31.4429 
2 *256:14 *9094:B 29.4607 
3 *256:14 *9104:B 9.3 
*END

*D_NET *257 0.000642698
*CONN
*I *9095:B I *D sky130_fd_sc_hd__xnor2_2
*I *9094:X O *D sky130_fd_sc_hd__xor2_1
*CAP
1 *9095:B 0.000161688
2 *9094:X 0.000161688
3 *9095:B *267:10 0.000319323
4 *235:12 *9095:B 0
*RES
1 *9094:X *9095:B 31.6714 
*END

*D_NET *258 0.00187641
*CONN
*I *9099:A I *D sky130_fd_sc_hd__xnor2_1
*I *9107:A I *D sky130_fd_sc_hd__xor2_1
*I *9095:Y O *D sky130_fd_sc_hd__xnor2_2
*CAP
1 *9099:A 0
2 *9107:A 0.000153706
3 *9095:Y 0.000548194
4 *258:8 0.0007019
5 *9107:A *9098:A 5.03772e-05
6 *9107:A *9099:B 0.000128154
7 *9107:A *9132:B2 1.4901e-05
8 *9107:A *9202:A1 2.28598e-05
9 *9107:A *9228:B 0.00014183
10 *9107:A *260:10 0
11 *9107:A *270:8 3.39401e-05
12 *9107:A *795:60 0
13 *9107:A *859:31 2.47627e-05
14 *258:8 *9105:B 5.5782e-05
15 *258:8 *9457:A1 0
16 *258:8 *260:10 0
17 *258:8 *795:60 0
18 *9087:B *258:8 0
19 *9088:B *258:8 0
*RES
1 *9095:Y *258:8 23.3357 
2 *258:8 *9107:A 18.0143 
3 *258:8 *9099:A 13.8 
*END

*D_NET *259 0.000780505
*CONN
*I *9097:B I *D sky130_fd_sc_hd__xor2_2
*I *9096:Y O *D sky130_fd_sc_hd__xnor2_1
*CAP
1 *9097:B 0.000276486
2 *9096:Y 0.000276486
3 *9097:B *9108:B 0.000227532
4 *9097:B *794:18 0
5 *9097:B *821:84 0
6 *235:12 *9097:B 0
*RES
1 *9096:Y *9097:B 22.425 
*END

*D_NET *260 0.00410489
*CONN
*I *9098:B I *D sky130_fd_sc_hd__xor2_1
*I *9128:B I *D sky130_fd_sc_hd__xnor2_1
*I *9111:B I *D sky130_fd_sc_hd__xnor2_1
*I *9097:X O *D sky130_fd_sc_hd__xor2_2
*CAP
1 *9098:B 0
2 *9128:B 0.000137799
3 *9111:B 1.645e-05
4 *9097:X 0.00050426
5 *260:18 0.000532491
6 *260:10 0.000882502
7 *9111:B *9111:A 9.90367e-05
8 *9111:B *857:35 9.90367e-05
9 *9128:B *9206:A1 3.18676e-05
10 *9128:B *291:8 0.000123288
11 *9128:B *858:21 0
12 *260:10 *9099:B 0
13 *260:10 *9133:A 7.83659e-05
14 *260:10 *9457:A1 9.25014e-06
15 *260:10 *296:14 0.00014285
16 *260:10 *376:16 0.000147834
17 *260:10 *821:84 2.27416e-05
18 *260:18 *9111:A 0.000181796
19 *260:18 *9112:A 8.34946e-05
20 *260:18 *9120:S 0.000149421
21 *260:18 *9132:A2_N 0.000146992
22 *260:18 *9132:B2 0
23 *260:18 *270:14 0
24 *260:18 *291:8 5.83536e-05
25 *260:18 *857:35 0.000171283
26 *260:18 *858:21 3.17148e-05
27 *9107:A *260:10 0
28 *9126:A *260:18 0.000215759
29 *251:10 *260:10 0.00018783
30 *251:14 *260:10 3.28142e-05
31 *251:14 *260:18 1.76606e-05
32 *258:8 *260:10 0
*RES
1 *9097:X *260:10 24.3893 
2 *260:10 *260:18 14.5179 
3 *260:18 *9111:B 10.2464 
4 *260:18 *9128:B 21.0857 
5 *260:10 *9098:B 13.8 
*END

*D_NET *261 0.000463854
*CONN
*I *9099:B I *D sky130_fd_sc_hd__xnor2_1
*I *9098:X O *D sky130_fd_sc_hd__xor2_1
*CAP
1 *9099:B 9.80143e-05
2 *9098:X 9.80143e-05
3 *9099:B *9098:A 5.52302e-05
4 *9099:B *9132:B2 7.6644e-05
5 *9099:B *376:16 7.79781e-06
6 *9107:A *9099:B 0.000128154
7 *260:10 *9099:B 0
*RES
1 *9098:X *9099:B 29.7786 
*END

*D_NET *262 0.00119618
*CONN
*I *9132:B2 I *D sky130_fd_sc_hd__a2bb2o_1
*I *9100:B I *D sky130_fd_sc_hd__nor2_1
*I *9099:Y O *D sky130_fd_sc_hd__xnor2_1
*CAP
1 *9132:B2 0.000229832
2 *9100:B 9.30922e-05
3 *9099:Y 0
4 *262:4 0.000322924
5 *9100:B *369:280 0.00014183
6 *9100:B *376:16 4.87854e-05
7 *9132:B2 *9132:A2_N 2.83284e-06
8 *9132:B2 *270:8 0.000183733
9 *9132:B2 *270:14 9.54798e-06
10 *9132:B2 *369:280 9.99644e-06
11 *9132:B2 *376:16 6.20558e-05
12 *9099:B *9132:B2 7.6644e-05
13 *9107:A *9132:B2 1.4901e-05
14 *260:18 *9132:B2 0
*RES
1 *9099:Y *262:4 9.3 
2 *262:4 *9100:B 11.6929 
3 *262:4 *9132:B2 22.9071 
*END

*D_NET *263 0.00100886
*CONN
*I *9133:A I *D sky130_fd_sc_hd__nor4_1
*I *9100:Y O *D sky130_fd_sc_hd__nor2_1
*CAP
1 *9133:A 0.000377676
2 *9100:Y 0.000377676
3 *9133:A *9098:A 1.33343e-05
4 *9133:A *9120:S 0.000122519
5 *251:14 *9133:A 3.92854e-05
6 *260:10 *9133:A 7.83659e-05
*RES
1 *9100:Y *9133:A 33.1893 
*END

*D_NET *264 0.00173822
*CONN
*I *9106:A I *D sky130_fd_sc_hd__xnor2_1
*I *9101:X O *D sky130_fd_sc_hd__xor2_1
*CAP
1 *9106:A 0.000379026
2 *9101:X 0.000379026
3 *9106:A *322:28 0.000253534
4 *9106:A *736:16 5.37741e-06
5 *9106:A *790:24 5.58603e-05
6 *9106:A *793:26 6.53781e-05
7 *9101:B *9106:A 0.000274288
8 *9105:A *9106:A 9.90431e-05
9 *252:6 *9106:A 0.000226687
*RES
1 *9101:X *9106:A 37.6714 
*END

*D_NET *265 0.000960264
*CONN
*I *9103:B I *D sky130_fd_sc_hd__xnor2_4
*I *9102:X O *D sky130_fd_sc_hd__xor2_2
*CAP
1 *9103:B 0.000305806
2 *9102:X 0.000305806
3 *9103:B *348:161 4.25716e-05
4 *9103:B *373:12 0
5 *9103:B *793:20 0
6 *9103:A *9103:B 0
7 *232:18 *9103:B 0.000306082
*RES
1 *9102:X *9103:B 35.0107 
*END

*D_NET *266 0.00368701
*CONN
*I *9113:B I *D sky130_fd_sc_hd__xnor2_2
*I *9104:A I *D sky130_fd_sc_hd__xnor2_2
*I *9103:Y O *D sky130_fd_sc_hd__xnor2_4
*CAP
1 *9113:B 3.03864e-05
2 *9104:A 0.000133684
3 *9103:Y 0.000846681
4 *266:8 0.00101075
5 *9113:B *344:138 4.87953e-05
6 *9113:B *757:34 2.14757e-05
7 *266:8 *372:18 0
8 *266:8 *795:22 0.000198698
9 *9068:A *266:8 4.25716e-05
10 *9068:B *266:8 0
11 *9072:B *266:8 0
12 *9094:B *9104:A 5.80706e-06
13 *231:10 *266:8 0.000973816
14 *231:16 *9104:A 3.34295e-05
15 *231:16 *9113:B 5.52302e-05
16 *231:16 *266:8 0.000222524
17 *232:18 *266:8 6.31628e-05
18 *248:10 *9104:A 0
*RES
1 *9103:Y *266:8 33.6571 
2 *266:8 *9104:A 16.05 
3 *266:8 *9113:B 14.7464 
*END

*D_NET *267 0.00488218
*CONN
*I *9105:B I *D sky130_fd_sc_hd__xnor2_1
*I *9108:B I *D sky130_fd_sc_hd__xnor2_2
*I *9104:Y O *D sky130_fd_sc_hd__xnor2_2
*CAP
1 *9105:B 0.000192736
2 *9108:B 0.000698362
3 *9104:Y 0.000485014
4 *267:10 0.00137611
5 *9105:B *9457:A1 0.000153047
6 *9105:B *611:20 4.35336e-05
7 *9108:B *9096:A 0.00049029
8 *9108:B *611:20 1.02821e-05
9 *267:10 *9457:A0 0
10 *267:10 *9457:A1 0
11 *267:10 *9457:S 0
12 *267:10 *821:84 0.000114131
13 *9094:B *267:10 0
14 *9095:B *267:10 0.000319323
15 *9096:B *9105:B 0.000139913
16 *9096:B *9108:B 0.000576118
17 *9097:B *9108:B 0.000227532
18 *235:12 *267:10 0
19 *258:8 *9105:B 5.5782e-05
*RES
1 *9104:Y *267:10 28.4429 
2 *267:10 *9108:B 24.2286 
3 *267:10 *9105:B 22.8357 
*END

*D_NET *268 0.00143428
*CONN
*I *9106:B I *D sky130_fd_sc_hd__xnor2_1
*I *9105:Y O *D sky130_fd_sc_hd__xnor2_1
*CAP
1 *9106:B 0.000407958
2 *9105:Y 0.000407958
3 *9106:B *9812:A 8.17543e-05
4 *9106:B *611:12 0.000101545
5 *9106:B *611:20 5.33005e-05
6 *9106:B *736:16 0.000167292
7 *9106:B *793:26 6.8646e-06
8 *9105:A *9106:B 0.00020761
*RES
1 *9105:Y *9106:B 34.8321 
*END

*D_NET *269 0.00316779
*CONN
*I *9107:B I *D sky130_fd_sc_hd__xor2_1
*I *9119:B I *D sky130_fd_sc_hd__xnor2_1
*I *9106:Y O *D sky130_fd_sc_hd__xnor2_1
*CAP
1 *9107:B 0.000100891
2 *9119:B 0.000149495
3 *9106:Y 0.000317497
4 *269:8 0.000567883
5 *9107:B *9202:A1 0.000144773
6 *9107:B *9228:B 0.000170955
7 *9119:B *793:26 0.000219117
8 *9119:B *795:60 0.000110817
9 *269:8 *611:12 9.91086e-05
10 *269:8 *793:26 0.000906153
11 *269:8 *795:60 0.000357321
12 *9105:A *269:8 2.37761e-05
*RES
1 *9106:Y *269:8 25.4607 
2 *269:8 *9119:B 17.6036 
3 *269:8 *9107:B 16.8 
*END

*D_NET *270 0.0031503
*CONN
*I *9129:A I *D sky130_fd_sc_hd__nor2_1
*I *9131:A I *D sky130_fd_sc_hd__and3_1
*I *9118:A1 I *D sky130_fd_sc_hd__o221a_1
*I *9107:X O *D sky130_fd_sc_hd__xor2_1
*CAP
1 *9129:A 0.000102734
2 *9131:A 0
3 *9118:A1 0.000281073
4 *9107:X 9.31974e-05
5 *270:14 0.000728168
6 *270:8 0.000643027
7 *9118:A1 *9118:B1 0.000140933
8 *9118:A1 *9118:B2 0.000204324
9 *9118:A1 *9127:A0 1.52978e-05
10 *9118:A1 *9127:A1 0.000128496
11 *9118:A1 *9129:B 3.37517e-05
12 *9118:A1 *9133:C 5.41464e-05
13 *9118:A1 *274:10 0
14 *9118:A1 *275:10 6.5185e-05
15 *9118:A1 *291:8 4.93223e-05
16 *9129:A *859:31 6.12326e-06
17 *270:8 *859:31 3.50155e-05
18 *270:14 *9112:A 8.09146e-06
19 *270:14 *9131:C 0.000106143
20 *270:14 *9132:A2_N 0
21 *270:14 *275:10 4.43256e-05
22 *270:14 *859:31 0
23 *9107:A *270:8 3.39401e-05
24 *9126:A *9118:A1 0
25 *9126:A *270:14 0.000183726
26 *9132:B2 *270:8 0.000183733
27 *9132:B2 *270:14 9.54798e-06
28 *260:18 *270:14 0
*RES
1 *9107:X *270:8 16.3536 
2 *270:8 *270:14 11.8929 
3 *270:14 *9118:A1 25.5321 
4 *270:14 *9131:A 9.3 
5 *270:8 *9129:A 15.1571 
*END

*D_NET *271 0.00281527
*CONN
*I *9115:B I *D sky130_fd_sc_hd__xor2_1
*I *9130:A I *D sky130_fd_sc_hd__xnor2_1
*I *9110:A I *D sky130_fd_sc_hd__xor2_1
*I *9108:Y O *D sky130_fd_sc_hd__xnor2_2
*CAP
1 *9115:B 1.99379e-05
2 *9130:A 0.000133914
3 *9110:A 0
4 *9108:Y 0.00051756
5 *271:12 0.000608614
6 *271:8 0.0010122
7 *9115:B *369:280 5.33334e-05
8 *9115:B *376:16 9.90367e-05
9 *9130:A *9118:A2 1.74352e-05
10 *9130:A *9130:B 0.000146533
11 *271:8 *907:DIODE 7.99046e-05
12 *271:8 *9121:B 0
13 *271:8 *277:8 0
14 *271:8 *739:333 0.000126802
15 *271:8 *743:96 0
16 *271:12 *9121:B 0
17 *271:12 *743:96 0
18 *271:12 *815:10 0
19 *9116:B *271:8 0
20 *243:8 *271:8 0
*RES
1 *9108:Y *271:8 23.6393 
2 *271:8 *271:12 11.9107 
3 *271:12 *9110:A 9.3 
4 *271:12 *9130:A 12.3 
5 *271:8 *9115:B 14.7464 
*END

*D_NET *272 0.000812129
*CONN
*I *9130:B I *D sky130_fd_sc_hd__xnor2_1
*I *9110:B I *D sky130_fd_sc_hd__xor2_1
*I *9109:Y O *D sky130_fd_sc_hd__xnor2_1
*CAP
1 *9130:B 0.000141542
2 *9110:B 2.23854e-05
3 *9109:Y 0.000119862
4 *272:6 0.000283789
5 *9130:B *9118:A2 9.80173e-05
6 *9130:B *9125:C 0
7 *9130:A *9130:B 0.000146533
*RES
1 *9109:Y *272:6 11.0679 
2 *272:6 *9110:B 9.72857 
3 *272:6 *9130:B 12.7286 
*END

*D_NET *273 0.00137868
*CONN
*I *9118:A2 I *D sky130_fd_sc_hd__o221a_1
*I *9110:X O *D sky130_fd_sc_hd__xor2_1
*CAP
1 *9118:A2 0.000460369
2 *9110:X 0.000460369
3 *9118:A2 *9118:B1 1.55885e-05
4 *9118:A2 *9118:B2 3.63587e-05
5 *9118:A2 *9124:B 9.71197e-05
6 *9118:A2 *9125:C 7.83659e-05
7 *9118:A2 *9126:B 1.17968e-05
8 *9118:A2 *9186:B1 0.00010326
9 *9130:A *9118:A2 1.74352e-05
10 *9130:B *9118:A2 9.80173e-05
*RES
1 *9110:X *9118:A2 34.9571 
*END

*D_NET *274 0.00163501
*CONN
*I *9127:A1 I *D sky130_fd_sc_hd__mux2_1
*I *9118:B1 I *D sky130_fd_sc_hd__o221a_1
*I *9111:Y O *D sky130_fd_sc_hd__xnor2_1
*CAP
1 *9127:A1 6.76102e-05
2 *9118:B1 0.000149875
3 *9111:Y 0.000265583
4 *274:10 0.000483068
5 *9118:B1 *9118:B2 0.000114592
6 *9118:B1 *9118:C1 1.73088e-05
7 *9118:B1 *9125:A 9.90431e-05
8 *274:10 *9125:A 7.55793e-05
9 *274:10 *9127:S 6.65302e-05
10 *274:10 *9133:B 1.08032e-05
11 *274:10 *275:10 0
12 *274:10 *291:8 0
13 *274:10 *794:18 0
14 *9118:A1 *9118:B1 0.000140933
15 *9118:A1 *9127:A1 0.000128496
16 *9118:A1 *274:10 0
17 *9118:A2 *9118:B1 1.55885e-05
*RES
1 *9111:Y *274:10 22.9786 
2 *274:10 *9118:B1 12.7286 
3 *274:10 *9127:A1 10.6571 
*END

*D_NET *275 0.00210873
*CONN
*I *9127:A0 I *D sky130_fd_sc_hd__mux2_1
*I *9118:B2 I *D sky130_fd_sc_hd__o221a_1
*I *9112:Y O *D sky130_fd_sc_hd__inv_2
*CAP
1 *9127:A0 4.48509e-05
2 *9118:B2 0.000321368
3 *9112:Y 0.000215948
4 *275:10 0.000582167
5 *9127:A0 *9133:B 6.87549e-05
6 *275:10 *9132:A2_N 4.87953e-05
7 *275:10 *9133:B 7.83587e-05
8 *9118:A1 *9118:B2 0.000204324
9 *9118:A1 *9127:A0 1.52978e-05
10 *9118:A1 *275:10 6.5185e-05
11 *9118:A2 *9118:B2 3.63587e-05
12 *9118:B1 *9118:B2 0.000114592
13 *9126:A *9127:A0 0
14 *9126:A *275:10 0.000268403
15 *270:14 *275:10 4.43256e-05
16 *274:10 *275:10 0
*RES
1 *9112:Y *275:10 18.8536 
2 *275:10 *9118:B2 19.4429 
3 *275:10 *9127:A0 14.8357 
*END

*D_NET *276 0.0038495
*CONN
*I *9114:B I *D sky130_fd_sc_hd__xnor2_2
*I *9113:Y O *D sky130_fd_sc_hd__xnor2_2
*CAP
1 *9114:B 0
2 *9113:Y 0.00113612
3 *276:40 0.00113612
4 *276:40 *9249:B2 0.000215069
5 *276:40 *9580:B1 6.58983e-06
6 *276:40 *344:138 0.000862853
7 *276:40 *344:144 7.51426e-05
8 *276:40 *344:208 0.00010096
9 *276:40 *390:16 2.27416e-05
10 *276:40 *597:80 8.22793e-06
11 *276:40 *743:96 2.11419e-05
12 *276:40 *815:21 4.65158e-06
13 *276:40 *824:8 9.15186e-06
14 *276:40 *897:82 0.000173229
15 *9580:A2 *276:40 2.45748e-05
16 *9637:D *276:40 5.29378e-05
*RES
1 *9113:Y *276:40 42.8009 
2 *276:40 *9114:B 9.3 
*END

*D_NET *277 0.00500427
*CONN
*I *9115:A I *D sky130_fd_sc_hd__xor2_1
*I *9121:B I *D sky130_fd_sc_hd__xor2_1
*I *9114:Y O *D sky130_fd_sc_hd__xnor2_2
*CAP
1 *9115:A 1.40355e-05
2 *9121:B 0.000280273
3 *9114:Y 0.000656954
4 *277:8 0.000951263
5 *9115:A *369:280 5.52302e-05
6 *9115:A *376:16 2.89114e-05
7 *9121:B *9123:A 0.000186662
8 *9121:B *815:10 0.000125724
9 *9121:B *815:21 3.34366e-05
10 *277:8 *907:DIODE 4.89264e-05
11 *277:8 *9635:CLK 0
12 *277:8 *9635:RESET_B 9.71532e-05
13 *277:8 *390:16 8.00806e-05
14 *277:8 *739:333 0.000743014
15 *277:8 *743:96 0
16 *277:8 *798:31 2.59093e-05
17 *277:8 *815:21 0.00162623
18 *9121:A *9121:B 5.04705e-05
19 *243:8 *277:8 0
20 *271:8 *9121:B 0
21 *271:8 *277:8 0
22 *271:12 *9121:B 0
*RES
1 *9114:Y *277:8 34.8714 
2 *277:8 *9121:B 19.6036 
3 *277:8 *9115:A 14.3357 
*END

*D_NET *278 0.00202213
*CONN
*I *9120:A0 I *D sky130_fd_sc_hd__mux2_1
*I *9117:A I *D sky130_fd_sc_hd__nand2_1
*I *9115:X O *D sky130_fd_sc_hd__xor2_1
*CAP
1 *9120:A0 0.00010282
2 *9117:A 0
3 *9115:X 0.000429544
4 *278:14 0.000532365
5 *9120:A0 *9120:A1 0.000270326
6 *9120:A0 *9125:B 2.89016e-05
7 *278:14 *9120:A1 5.52302e-05
8 *278:14 *279:12 3.87365e-05
9 *278:14 *286:10 6.05161e-06
10 *278:14 *344:152 7.06861e-05
11 *278:14 *376:16 0.000487467
12 *278:14 *743:96 0
*RES
1 *9115:X *278:14 25.425 
2 *278:14 *9117:A 9.3 
3 *278:14 *9120:A0 11.8893 
*END

*D_NET *279 0.00194848
*CONN
*I *9120:A1 I *D sky130_fd_sc_hd__mux2_1
*I *9117:B I *D sky130_fd_sc_hd__nand2_1
*I *9116:X O *D sky130_fd_sc_hd__xor2_1
*CAP
1 *9120:A1 0.000206323
2 *9117:B 3.66377e-05
3 *9116:X 0.000495573
4 *279:12 0.000738534
5 *9117:B *286:10 5.62995e-05
6 *9120:A1 *286:10 1.02821e-05
7 *279:12 *344:146 0
8 *279:12 *344:152 0
9 *279:12 *743:96 0
10 *9088:A *279:12 4.05411e-05
11 *9120:A0 *9120:A1 0.000270326
12 *9121:A *9117:B 0
13 *278:14 *9120:A1 5.52302e-05
14 *278:14 *279:12 3.87365e-05
*RES
1 *9116:X *279:12 26.1571 
2 *279:12 *9117:B 10.675 
3 *279:12 *9120:A1 13.9429 
*END

*D_NET *280 0.000308209
*CONN
*I *9118:C1 I *D sky130_fd_sc_hd__o221a_1
*I *9117:Y O *D sky130_fd_sc_hd__nand2_1
*CAP
1 *9118:C1 6.62305e-05
2 *9117:Y 6.62305e-05
3 *9118:C1 *286:10 7.83587e-05
4 *9118:C1 *344:152 8.00806e-05
5 *9118:B1 *9118:C1 1.73088e-05
*RES
1 *9117:Y *9118:C1 29.3679 
*END

*D_NET *281 0.000858583
*CONN
*I *9125:A I *D sky130_fd_sc_hd__nand3_1
*I *9118:X O *D sky130_fd_sc_hd__o221a_1
*CAP
1 *9125:A 0.000232126
2 *9118:X 0.000232126
3 *9125:A *9126:B 5.52238e-05
4 *9125:A *9131:C 3.18676e-05
5 *9125:A *9133:B 0
6 *9125:A *794:18 0.000132617
7 *9118:B1 *9125:A 9.90431e-05
8 *274:10 *9125:A 7.55793e-05
*RES
1 *9118:X *9125:A 32.5464 
*END

*D_NET *282 0.00225135
*CONN
*I *9120:S I *D sky130_fd_sc_hd__mux2_1
*I *9119:Y O *D sky130_fd_sc_hd__xnor2_1
*CAP
1 *9120:S 0.000735254
2 *9119:Y 0.000735254
3 *9120:S *9098:A 3.51368e-05
4 *9120:S *9132:A1_N 0.000312215
5 *9132:B1 *9120:S 1.21258e-05
6 *9133:A *9120:S 0.000122519
7 *251:14 *9120:S 0.000149421
8 *260:18 *9120:S 0.000149421
*RES
1 *9119:Y *9120:S 40.1357 
*END

*D_NET *283 0.00101039
*CONN
*I *9125:B I *D sky130_fd_sc_hd__nand3_1
*I *9120:X O *D sky130_fd_sc_hd__mux2_1
*CAP
1 *9125:B 0.000196799
2 *9120:X 0.000196799
3 *9125:B *9126:B 5.33005e-05
4 *9125:B *9131:C 2.89016e-05
5 *9125:B *344:152 0.000173863
6 *9125:B *794:18 0.000331824
7 *9120:A0 *9125:B 2.89016e-05
*RES
1 *9120:X *9125:B 33.0464 
*END

*D_NET *284 0.000642042
*CONN
*I *9123:A I *D sky130_fd_sc_hd__xnor2_2
*I *9121:X O *D sky130_fd_sc_hd__xor2_1
*CAP
1 *9123:A 0.000129997
2 *9121:X 0.000129997
3 *9121:A *9123:A 0.000195386
4 *9121:B *9123:A 0.000186662
*RES
1 *9121:X *9123:A 22.4393 
*END

*D_NET *285 0.000856238
*CONN
*I *9123:B I *D sky130_fd_sc_hd__xnor2_2
*I *9122:Y O *D sky130_fd_sc_hd__xnor2_1
*CAP
1 *9123:B 0.000261205
2 *9122:Y 0.000261205
3 *9123:B *344:172 9.71197e-05
4 *9123:B *388:16 6.19181e-05
5 *9123:B *815:10 0
6 *9123:B *815:21 0
7 *9109:B *9123:B 5.80706e-06
8 *238:14 *9123:B 0.000168983
*RES
1 *9122:Y *9123:B 32.9214 
*END

*D_NET *286 0.0028764
*CONN
*I *9124:B I *D sky130_fd_sc_hd__xnor2_1
*I *9126:B I *D sky130_fd_sc_hd__xnor2_1
*I *9123:Y O *D sky130_fd_sc_hd__xnor2_2
*CAP
1 *9124:B 0.000102059
2 *9126:B 0.00022156
3 *9123:Y 0.000507966
4 *286:10 0.000831585
5 *9124:B *9186:B1 4.18895e-05
6 *9124:B *856:23 5.71472e-05
7 *9126:B *9125:C 0.000221911
8 *9126:B *9131:C 3.98577e-05
9 *9126:B *9133:B 9.80173e-05
10 *9126:B *9186:B1 2.69397e-05
11 *9126:B *344:152 9.01334e-05
12 *286:10 *9186:B1 5.27703e-06
13 *286:10 *344:152 3.417e-05
14 *286:10 *743:96 0
15 *9117:B *286:10 5.62995e-05
16 *9118:A2 *9124:B 9.71197e-05
17 *9118:A2 *9126:B 1.17968e-05
18 *9118:C1 *286:10 7.83587e-05
19 *9120:A1 *286:10 1.02821e-05
20 *9121:A *286:10 0.000229456
21 *9125:A *9126:B 5.52238e-05
22 *9125:B *9126:B 5.33005e-05
23 *278:14 *286:10 6.05161e-06
*RES
1 *9123:Y *286:10 21.2107 
2 *286:10 *9126:B 19.4607 
3 *286:10 *9124:B 15.9786 
*END

*D_NET *287 0.000663343
*CONN
*I *9125:C I *D sky130_fd_sc_hd__nand3_1
*I *9124:Y O *D sky130_fd_sc_hd__xnor2_1
*CAP
1 *9125:C 0.00013122
2 *9124:Y 0.00013122
3 *9125:C *9131:C 0.000100625
4 *9118:A2 *9125:C 7.83659e-05
5 *9126:B *9125:C 0.000221911
6 *9130:B *9125:C 0
*RES
1 *9124:Y *9125:C 31.4393 
*END

*D_NET *288 0.00135827
*CONN
*I *9133:B I *D sky130_fd_sc_hd__nor4_1
*I *9125:Y O *D sky130_fd_sc_hd__nand3_1
*CAP
1 *9133:B 0.000368802
2 *9125:Y 0.000368802
3 *9133:B *9127:S 0.000127439
4 *9133:B *9131:C 9.22103e-06
5 *9133:B *9133:C 0.000127446
6 *9133:B *794:18 0
7 *9125:A *9133:B 0
8 *9126:A *9133:B 0.000100625
9 *9126:B *9133:B 9.80173e-05
10 *9127:A0 *9133:B 6.87549e-05
11 *251:14 *9133:B 0
12 *274:10 *9133:B 1.08032e-05
13 *275:10 *9133:B 7.83587e-05
*RES
1 *9125:Y *9133:B 35.1 
*END

*D_NET *289 0.000283374
*CONN
*I *9127:S I *D sky130_fd_sc_hd__mux2_1
*I *9126:Y O *D sky130_fd_sc_hd__xnor2_1
*CAP
1 *9127:S 4.47022e-05
2 *9126:Y 4.47022e-05
3 *9133:B *9127:S 0.000127439
4 *274:10 *9127:S 6.65302e-05
*RES
1 *9126:Y *9127:S 29.2429 
*END

*D_NET *290 0.000784865
*CONN
*I *9133:C I *D sky130_fd_sc_hd__nor4_1
*I *9127:X O *D sky130_fd_sc_hd__mux2_1
*CAP
1 *9133:C 0.000241558
2 *9127:X 0.000241558
3 *9133:C *9133:D 0.000101593
4 *9133:C *794:18 0
5 *9118:A1 *9133:C 5.41464e-05
6 *9132:B1 *9133:C 1.85641e-05
7 *9133:B *9133:C 0.000127446
8 *251:14 *9133:C 0
*RES
1 *9127:X *9133:C 33.0286 
*END

*D_NET *291 0.00180612
*CONN
*I *9129:B I *D sky130_fd_sc_hd__nor2_1
*I *9131:B I *D sky130_fd_sc_hd__and3_1
*I *9128:Y O *D sky130_fd_sc_hd__xnor2_1
*CAP
1 *9129:B 0.00040162
2 *9131:B 0
3 *9128:Y 0.000236828
4 *291:8 0.000638448
5 *9129:B *9132:A1_N 1.15281e-05
6 *291:8 *858:21 0
7 *9118:A1 *9129:B 3.37517e-05
8 *9118:A1 *291:8 4.93223e-05
9 *9126:A *9129:B 5.32105e-05
10 *9126:A *291:8 4.08796e-05
11 *9128:B *291:8 0.000123288
12 *9132:B1 *9129:B 0.000158893
13 *260:18 *291:8 5.83536e-05
14 *274:10 *291:8 0
*RES
1 *9128:Y *291:8 18.7821 
2 *291:8 *9131:B 13.8 
3 *291:8 *9129:B 19.9429 
*END

*D_NET *292 0.000650324
*CONN
*I *9132:A1_N I *D sky130_fd_sc_hd__a2bb2o_1
*I *9129:Y O *D sky130_fd_sc_hd__nor2_1
*CAP
1 *9132:A1_N 0.000101633
2 *9129:Y 0.000101633
3 *9120:S *9132:A1_N 0.000312215
4 *9129:B *9132:A1_N 1.15281e-05
5 *9132:B1 *9132:A1_N 0.000123314
*RES
1 *9129:Y *9132:A1_N 22.0286 
*END

*D_NET *293 0.00162738
*CONN
*I *9131:C I *D sky130_fd_sc_hd__and3_1
*I *9130:Y O *D sky130_fd_sc_hd__xnor2_1
*CAP
1 *9131:C 0.000572141
2 *9130:Y 0.000572141
3 *9125:A *9131:C 3.18676e-05
4 *9125:B *9131:C 2.89016e-05
5 *9125:C *9131:C 0.000100625
6 *9126:A *9131:C 0.000166485
7 *9126:B *9131:C 3.98577e-05
8 *9133:B *9131:C 9.22103e-06
9 *270:14 *9131:C 0.000106143
*RES
1 *9130:Y *9131:C 26.6 
*END

*D_NET *294 0.000538349
*CONN
*I *9132:A2_N I *D sky130_fd_sc_hd__a2bb2o_1
*I *9131:X O *D sky130_fd_sc_hd__and3_1
*CAP
1 *9132:A2_N 0.000169865
2 *9131:X 0.000169865
3 *9132:B2 *9132:A2_N 2.83284e-06
4 *260:18 *9132:A2_N 0.000146992
5 *270:14 *9132:A2_N 0
6 *275:10 *9132:A2_N 4.87953e-05
*RES
1 *9131:X *9132:A2_N 30.4929 
*END

*D_NET *295 0.000444093
*CONN
*I *9133:D I *D sky130_fd_sc_hd__nor4_1
*I *9132:X O *D sky130_fd_sc_hd__a2bb2o_1
*CAP
1 *9133:D 0.000150744
2 *9132:X 0.000150744
3 *9132:B1 *9133:D 5.30637e-06
4 *9133:C *9133:D 0.000101593
5 *251:14 *9133:D 3.5707e-05
*RES
1 *9132:X *9133:D 30.2964 
*END

*D_NET *296 0.00496848
*CONN
*I *9867:A I *D sky130_fd_sc_hd__clkbuf_2
*I *9457:A1 I *D sky130_fd_sc_hd__mux2_1
*I *9133:Y O *D sky130_fd_sc_hd__nor4_1
*CAP
1 *9867:A 0.00017803
2 *9457:A1 0.000855856
3 *9133:Y 0.000760736
4 *296:14 0.00179462
5 *9457:A1 *319:14 0.000578035
6 *9457:A1 *821:84 6.44636e-05
7 *296:14 *821:84 3.65178e-05
8 *9087:A *9457:A1 0
9 *9087:B *9457:A1 0
10 *9094:B *9457:A1 0
11 *9105:A *9867:A 0.000271345
12 *9105:B *9457:A1 0.000153047
13 *248:10 *9457:A1 0
14 *251:10 *296:14 0
15 *251:14 *296:14 5.9503e-05
16 *253:12 *9457:A1 6.42242e-05
17 *258:8 *9457:A1 0
18 *260:10 *9457:A1 9.25014e-06
19 *260:10 *296:14 0.00014285
20 *267:10 *9457:A1 0
*RES
1 *9133:Y *296:14 30.3536 
2 *296:14 *9457:A1 33.3 
3 *296:14 *9867:A 12.7107 
*END

*D_NET *297 0.000402585
*CONN
*I *9136:C I *D sky130_fd_sc_hd__and4bb_1
*I *9134:X O *D sky130_fd_sc_hd__and3b_1
*CAP
1 *9136:C 9.41458e-05
2 *9134:X 9.41458e-05
3 *9136:C *790:14 0.000123495
4 *9136:C *791:64 5.94294e-05
5 *9136:C *814:37 3.13687e-05
*RES
1 *9134:X *9136:C 29.7786 
*END

*D_NET *298 0.00154422
*CONN
*I *9136:D I *D sky130_fd_sc_hd__and4bb_1
*I *9135:X O *D sky130_fd_sc_hd__and4b_1
*CAP
1 *9136:D 0.000481791
2 *9135:X 0.000481791
3 *9136:D *9136:B_N 0.000271303
4 *9136:D *9484:A1 0.000225988
5 *9136:D *9484:B2 4.4873e-05
6 *9136:D *540:378 3.05522e-05
7 *9779:A *9136:D 7.92229e-06
*RES
1 *9135:X *9136:D 25.2964 
*END

*D_NET *299 0.00790683
*CONN
*I *9157:A I *D sky130_fd_sc_hd__and2_1
*I *9456:A2 I *D sky130_fd_sc_hd__a21o_1
*I *9462:B1 I *D sky130_fd_sc_hd__a21o_1
*I *9136:X O *D sky130_fd_sc_hd__and4bb_1
*CAP
1 *9157:A 0.000109561
2 *9456:A2 0.000516806
3 *9462:B1 0
4 *9136:X 0.000338281
5 *299:27 0.00130935
6 *299:16 0.00102126
7 *9157:A *9086:A 3.99614e-06
8 *9157:A *9157:B 4.88637e-05
9 *9157:A *9459:S 9.41642e-05
10 *9157:A *9824:A 0.000136958
11 *9456:A2 *9243:A 0.000178847
12 *9456:A2 *9243:B 9.18574e-05
13 *9456:A2 *337:165 0.000267814
14 *9456:A2 *337:176 0.000119618
15 *9456:A2 *337:193 0.000230233
16 *9456:A2 *736:28 0.00027328
17 *9456:A2 *791:96 0.00038501
18 *9456:A2 *791:108 0
19 *299:16 *9136:A_N 4.72917e-05
20 *299:16 *9484:B2 0.000224577
21 *299:16 *9529:A0 6.05161e-06
22 *299:16 *9531:A0 3.4879e-05
23 *299:16 *9531:S 3.37729e-05
24 *299:16 *9656:RESET_B 0.000221641
25 *299:16 *9833:A 0
26 *299:16 *792:10 0.000147474
27 *299:27 *9181:B2 0
28 *299:27 *9462:A1 0.000384995
29 *299:27 *9529:A0 4.94362e-05
30 *299:27 *9529:A1 0.000167275
31 *299:27 *9656:RESET_B 8.57023e-05
32 *299:27 *337:193 0.000148903
33 *299:27 *348:161 0
34 *299:27 *348:171 0
35 *299:27 *442:127 2.05938e-05
36 *299:27 *588:18 4.46186e-06
37 *299:27 *791:92 7.80122e-05
38 *299:27 *791:96 0.00046763
39 *299:27 *814:41 0.000463196
40 *9640:D *299:27 7.83587e-05
41 *9657:D *299:16 0.000116681
*RES
1 *9136:X *299:16 26.5679 
2 *299:16 *9462:B1 9.3 
3 *299:16 *299:27 24.3929 
4 *299:27 *9456:A2 27.8357 
5 *299:27 *9157:A 16.4071 
*END

*D_NET *300 0.00096123
*CONN
*I *9156:A I *D sky130_fd_sc_hd__or4b_1
*I *9137:Y O *D sky130_fd_sc_hd__inv_2
*CAP
1 *9156:A 0.000203407
2 *9137:Y 0.000203407
3 *9156:A *9152:A2 6.05161e-06
4 *9156:A *9156:C 5.33005e-05
5 *9156:A *312:22 0.000158283
6 *9156:A *608:12 0.00033678
*RES
1 *9137:Y *9156:A 32.9214 
*END

*D_NET *301 0.000942196
*CONN
*I *9152:A2 I *D sky130_fd_sc_hd__a221o_1
*I *9138:Y O *D sky130_fd_sc_hd__inv_2
*CAP
1 *9152:A2 0.000276848
2 *9138:Y 0.000276848
3 *9152:A2 *9236:A1 5.80706e-06
4 *9152:A2 *312:22 0.000126439
5 *9152:A2 *608:16 0.000178847
6 *9152:A2 *608:36 6.42242e-05
7 *9152:A2 *820:65 7.13226e-06
8 *9156:A *9152:A2 6.05161e-06
*RES
1 *9138:Y *9152:A2 31.9795 
*END

*D_NET *302 0.00216639
*CONN
*I *9152:B2 I *D sky130_fd_sc_hd__a221o_1
*I *9155:B2 I *D sky130_fd_sc_hd__o221a_1
*I *9139:Y O *D sky130_fd_sc_hd__inv_2
*CAP
1 *9152:B2 0.000243599
2 *9155:B2 0
3 *9139:Y 0.0001637
4 *302:10 0.000407299
5 *9152:B2 *9150:A2 6.71755e-05
6 *9152:B2 *9151:C1 6.67989e-05
7 *9152:B2 *9152:A1 6.26774e-06
8 *9152:B2 *9155:A2 0.000142856
9 *9152:B2 *9155:B1 2.53134e-05
10 *9152:B2 *9156:D_N 0.000245158
11 *9152:B2 *322:45 4.46186e-06
12 *9152:B2 *322:63 5.6798e-06
13 *9152:B2 *322:195 0.00019384
14 *9152:B2 *539:60 0.00018372
15 *9152:B2 *608:12 4.97121e-06
16 *9152:B2 *608:36 7.2754e-05
17 *9152:B2 *819:44 5.74499e-06
18 *9152:B2 *820:65 6.26774e-06
19 *302:10 *9139:A 3.57366e-05
20 *302:10 *9155:A1 9.7049e-06
21 *302:10 *9155:A2 0
22 *302:10 *9155:B1 3.57366e-05
23 *302:10 *9155:C1 0.00014183
24 *302:10 *539:60 1.90111e-05
25 *302:10 *819:44 5.72966e-05
26 *302:10 *821:74 2.14658e-05
*RES
1 *9139:Y *302:10 13.05 
2 *302:10 *9155:B2 9.3 
3 *302:10 *9152:B2 26.233 
*END

*D_NET *303 0.000235876
*CONN
*I *9151:A1 I *D sky130_fd_sc_hd__a211o_1
*I *9140:Y O *D sky130_fd_sc_hd__inv_2
*CAP
1 *9151:A1 7.44224e-05
2 *9140:Y 7.44224e-05
3 *9151:A1 *9151:B1 5.80706e-06
4 *9151:A1 *9155:C1 3.34687e-05
5 *9151:A1 *9450:A0 1.02504e-05
6 *9151:A1 *9797:A 0
7 *9151:A1 *322:77 3.75052e-05
*RES
1 *9140:Y *9151:A1 29.2429 
*END

*D_NET *304 0.00237932
*CONN
*I *9146:A2 I *D sky130_fd_sc_hd__a221o_1
*I *9149:A2 I *D sky130_fd_sc_hd__o22ai_1
*I *9141:Y O *D sky130_fd_sc_hd__inv_2
*CAP
1 *9146:A2 0.000316464
2 *9149:A2 7.3506e-05
3 *9141:Y 0.000328596
4 *304:14 0.000718567
5 *9146:A2 *9143:A 2.98726e-05
6 *9146:A2 *9146:A1 1.60023e-05
7 *9146:A2 *9146:B1 4.39534e-06
8 *9146:A2 *9146:C1 0
9 *9146:A2 *9149:B1 9.8621e-05
10 *9146:A2 *9628:CLK 0
11 *9146:A2 *306:10 8.00806e-05
12 *9146:A2 *307:6 1.02821e-05
13 *9146:A2 *312:22 2.32517e-05
14 *9149:A2 *9143:A 1.98839e-05
15 *9149:A2 *9145:B2 5.33005e-05
16 *9149:A2 *9149:A1 3.57366e-05
17 *9149:A2 *9448:A1 0
18 *9149:A2 *307:6 5.52302e-05
19 *304:14 *9145:B1 7.83659e-05
20 *304:14 *9145:B2 9.60939e-05
21 *304:14 *305:12 0.000264428
22 *304:14 *537:28 7.6644e-05
*RES
1 *9141:Y *304:14 23.2821 
2 *304:14 *9149:A2 11.4071 
3 *304:14 *9146:A2 24.0723 
*END

*D_NET *305 0.00249717
*CONN
*I *9146:B1 I *D sky130_fd_sc_hd__a221o_1
*I *9154:A2 I *D sky130_fd_sc_hd__o22a_1
*I *9142:Y O *D sky130_fd_sc_hd__inv_2
*CAP
1 *9146:B1 0.000130508
2 *9154:A2 0.000201974
3 *9142:Y 0.00026907
4 *305:12 0.000601552
5 *9146:B1 *9145:A2 0.000180348
6 *9146:B1 *9146:A1 3.01824e-05
7 *9146:B1 *9146:B2 1.28809e-05
8 *9146:B1 *9146:C1 9.58181e-05
9 *9146:B1 *818:43 2.04825e-05
10 *9154:A2 *537:28 0.000117421
11 *9154:A2 *818:43 5.20383e-05
12 *9154:A2 *820:29 0.000183298
13 *9154:A2 *820:65 5.52302e-05
14 *305:12 *9145:A2 5.33005e-05
15 *305:12 *9145:B2 5.33005e-05
16 *305:12 *9448:A0 9.02232e-05
17 *305:12 *537:28 5.80906e-05
18 *305:12 *818:43 2.26327e-05
19 *9146:A2 *9146:B1 4.39534e-06
20 *304:14 *305:12 0.000264428
*RES
1 *9142:Y *305:12 19.7554 
2 *305:12 *9154:A2 17.4696 
3 *305:12 *9146:B1 17.1393 
*END

*D_NET *306 0.00170074
*CONN
*I *9154:B1 I *D sky130_fd_sc_hd__o22a_1
*I *9145:A2 I *D sky130_fd_sc_hd__a22o_1
*I *9143:Y O *D sky130_fd_sc_hd__inv_2
*CAP
1 *9154:B1 0.000193117
2 *9145:A2 0.000258022
3 *9143:Y 0.000119885
4 *306:10 0.000571024
5 *9145:A2 *9144:A 0
6 *9145:A2 *9146:B2 5.41794e-05
7 *9145:A2 *9146:C1 1.04232e-05
8 *9145:A2 *9448:A0 1.97695e-05
9 *9145:A2 *818:43 4.09488e-06
10 *9154:B1 *9146:B2 5.74562e-05
11 *9154:B1 *9154:A1 0
12 *9154:B1 *9628:CLK 0
13 *9154:B1 *818:43 0
14 *9154:B1 *820:65 9.90431e-05
15 *306:10 *9144:A 0
16 *306:10 *9628:CLK 0
17 *306:10 *818:43 0
18 *9146:A2 *306:10 8.00806e-05
19 *9146:B1 *9145:A2 0.000180348
20 *305:12 *9145:A2 5.33005e-05
*RES
1 *9143:Y *306:10 15.8268 
2 *306:10 *9145:A2 18.6661 
3 *306:10 *9154:B1 17.8804 
*END

*D_NET *307 0.00143437
*CONN
*I *9149:B2 I *D sky130_fd_sc_hd__o22ai_1
*I *9145:B2 I *D sky130_fd_sc_hd__a22o_1
*I *9144:Y O *D sky130_fd_sc_hd__inv_2
*CAP
1 *9149:B2 0
2 *9145:B2 0.000176228
3 *9144:Y 4.72568e-05
4 *307:6 0.000223484
5 *9145:B2 *9143:A 7.48301e-06
6 *9145:B2 *9145:B1 0.000146474
7 *9145:B2 *9149:A1 4.87953e-05
8 *9145:B2 *9448:A0 5.52302e-05
9 *9145:B2 *537:28 5.59013e-05
10 *9145:B2 *818:62 2.61337e-05
11 *9145:B2 *863:44 0.000148189
12 *307:6 *9143:A 0.000181381
13 *307:6 *9149:B1 4.96113e-05
14 *9146:A2 *307:6 1.02821e-05
15 *9149:A2 *9145:B2 5.33005e-05
16 *9149:A2 *307:6 5.52302e-05
17 *304:14 *9145:B2 9.60939e-05
18 *305:12 *9145:B2 5.33005e-05
*RES
1 *9144:Y *307:6 11.0679 
2 *307:6 *9145:B2 32.2821 
3 *307:6 *9149:B2 9.3 
*END

*D_NET *308 0.000277345
*CONN
*I *9146:C1 I *D sky130_fd_sc_hd__a221o_1
*I *9145:X O *D sky130_fd_sc_hd__a22o_1
*CAP
1 *9146:C1 7.13463e-05
2 *9145:X 7.13463e-05
3 *9146:C1 *9146:A1 2.84109e-05
4 *9145:A2 *9146:C1 1.04232e-05
5 *9146:A2 *9146:C1 0
6 *9146:B1 *9146:C1 9.58181e-05
*RES
1 *9145:X *9146:C1 20.2786 
*END

*D_NET *309 0.00165085
*CONN
*I *9151:B1 I *D sky130_fd_sc_hd__a211o_1
*I *9146:X O *D sky130_fd_sc_hd__a221o_1
*CAP
1 *9151:B1 0.000624727
2 *9146:X 0.000624727
3 *9151:B1 *9441:A 0
4 *9151:B1 *9628:CLK 5.33433e-05
5 *9151:B1 *9628:RESET_B 1.19309e-05
6 *9151:B1 *9797:A 0
7 *9151:B1 *322:77 0.000275094
8 *9151:A1 *9151:B1 5.80706e-06
9 *9628:D *9151:B1 5.52238e-05
*RES
1 *9146:X *9151:B1 36.9393 
*END

*D_NET *310 0.00119264
*CONN
*I *9150:A2 I *D sky130_fd_sc_hd__a221o_1
*I *9155:A2 I *D sky130_fd_sc_hd__o221a_1
*I *9147:Y O *D sky130_fd_sc_hd__inv_2
*CAP
1 *9150:A2 3.71064e-05
2 *9155:A2 5.30191e-05
3 *9147:Y 0.000197818
4 *310:10 0.000287944
5 *9150:A2 *9156:D_N 8.71761e-06
6 *9150:A2 *819:53 0.000161813
7 *9155:A2 *9155:A1 1.04232e-05
8 *9155:A2 *819:44 3.14193e-05
9 *9155:A2 *819:53 2.28499e-05
10 *310:10 *9151:C1 5.58941e-05
11 *310:10 *322:45 0
12 *310:10 *785:33 0.000115602
13 *9152:B2 *9150:A2 6.71755e-05
14 *9152:B2 *9155:A2 0.000142856
15 *302:10 *9155:A2 0
*RES
1 *9147:Y *310:10 22.3714 
2 *310:10 *9155:A2 11.0857 
3 *310:10 *9150:A2 10.8625 
*END

*D_NET *311 0.00118621
*CONN
*I *9153:A I *D sky130_fd_sc_hd__nor2_1
*I *9150:B2 I *D sky130_fd_sc_hd__a221o_1
*I *9148:Y O *D sky130_fd_sc_hd__inv_2
*CAP
1 *9153:A 0
2 *9150:B2 0.000200585
3 *9148:Y 3.43946e-05
4 *311:8 0.00023498
5 *9150:B2 *9150:B1 0.000111538
6 *9150:B2 *9156:B 1.65558e-05
7 *9150:B2 *312:22 4.12421e-05
8 *9150:B2 *322:41 0.000183985
9 *9150:B2 *756:10 0
10 *9150:B2 *798:20 0.000137962
11 *311:8 *9156:B 1.50181e-05
12 *311:8 *319:14 8.00806e-05
13 *311:8 *798:20 0.000129868
*RES
1 *9148:Y *311:8 15.4429 
2 *311:8 *9150:B2 19.4116 
3 *311:8 *9153:A 13.8 
*END

*D_NET *312 0.00570323
*CONN
*I *9150:C1 I *D sky130_fd_sc_hd__a221o_1
*I *9149:Y O *D sky130_fd_sc_hd__o22ai_1
*CAP
1 *9150:C1 0
2 *9149:Y 0.00177455
3 *312:22 0.00177455
4 *312:22 *9114:A 0.0010091
5 *312:22 *9143:A 0.000266955
6 *312:22 *9156:B 0.00017309
7 *312:22 *9221:A1 6.63569e-05
8 *312:22 *9236:A1 0.000162203
9 *312:22 *9480:A1 9.90367e-05
10 *312:22 *319:14 1.00375e-05
11 *312:22 *608:12 1.41029e-05
12 *312:22 *608:36 4.038e-06
13 *312:22 *756:10 0
14 *312:22 *798:20 0
15 *9146:A2 *312:22 2.32517e-05
16 *9150:B2 *312:22 4.12421e-05
17 *9152:A2 *312:22 0.000126439
18 *9156:A *312:22 0.000158283
*RES
1 *9149:Y *312:22 49.7107 
2 *312:22 *9150:C1 9.3 
*END

*D_NET *313 0.00270104
*CONN
*I *9151:C1 I *D sky130_fd_sc_hd__a211o_1
*I *9150:X O *D sky130_fd_sc_hd__a221o_1
*CAP
1 *9151:C1 0.000449427
2 *9150:X 0.000449427
3 *9151:C1 *9151:A2 4.88637e-05
4 *9151:C1 *9152:A1 0.000178847
5 *9151:C1 *9152:C1 0.000434806
6 *9151:C1 *9155:C1 0.000225616
7 *9151:C1 *322:45 0
8 *9151:C1 *322:195 0.000168939
9 *9151:C1 *539:60 0.000283541
10 *9151:C1 *785:33 0
11 *9151:C1 *817:40 0.00022266
12 *9151:C1 *819:53 5.52302e-05
13 *9151:C1 *820:65 6.09919e-05
14 *9152:B2 *9151:C1 6.67989e-05
15 *310:10 *9151:C1 5.58941e-05
*RES
1 *9150:X *9151:C1 40.5464 
*END

*D_NET *314 0.00110388
*CONN
*I *9152:C1 I *D sky130_fd_sc_hd__a221o_1
*I *9151:X O *D sky130_fd_sc_hd__a211o_1
*CAP
1 *9152:C1 0.000112482
2 *9151:X 0.000112482
3 *9152:C1 *9151:A2 0.00030926
4 *9152:C1 *9152:A1 1.98839e-05
5 *9152:C1 *9440:S 5.52302e-05
6 *9152:C1 *820:65 5.97398e-05
7 *9151:C1 *9152:C1 0.000434806
*RES
1 *9151:X *9152:C1 23.2429 
*END

*D_NET *315 0.000548209
*CONN
*I *9156:B I *D sky130_fd_sc_hd__or4b_1
*I *9152:X O *D sky130_fd_sc_hd__a221o_1
*CAP
1 *9156:B 0.000124327
2 *9152:X 0.000124327
3 *9156:B *9153:B 0
4 *9156:B *9156:C 5.33005e-05
5 *9156:B *319:14 4.15914e-05
6 *9150:B2 *9156:B 1.65558e-05
7 *311:8 *9156:B 1.50181e-05
8 *312:22 *9156:B 0.00017309
*RES
1 *9152:X *9156:B 30.8143 
*END

*D_NET *316 0.000369173
*CONN
*I *9156:C I *D sky130_fd_sc_hd__or4b_1
*I *9153:Y O *D sky130_fd_sc_hd__nor2_1
*CAP
1 *9156:C 0.000131286
2 *9153:Y 0.000131286
3 *9156:A *9156:C 5.33005e-05
4 *9156:B *9156:C 5.33005e-05
*RES
1 *9153:Y *9156:C 20.7786 
*END

*D_NET *317 0.0025934
*CONN
*I *9155:C1 I *D sky130_fd_sc_hd__o221a_1
*I *9154:X O *D sky130_fd_sc_hd__o22a_1
*CAP
1 *9155:C1 0.000734913
2 *9154:X 0.000734913
3 *9155:C1 *9450:A0 0.000257484
4 *9155:C1 *817:25 9.72251e-05
5 *9155:C1 *817:40 5.74562e-05
6 *9155:C1 *820:65 0.00017058
7 *9155:C1 *821:74 0.000139913
8 *9151:A1 *9155:C1 3.34687e-05
9 *9151:C1 *9155:C1 0.000225616
10 *302:10 *9155:C1 0.00014183
*RES
1 *9154:X *9155:C1 40.85 
*END

*D_NET *318 0.000707947
*CONN
*I *9156:D_N I *D sky130_fd_sc_hd__or4b_1
*I *9155:X O *D sky130_fd_sc_hd__o221a_1
*CAP
1 *9156:D_N 0.00015522
2 *9155:X 0.00015522
3 *9156:D_N *322:63 0.000123852
4 *9156:D_N *608:12 1.31516e-05
5 *9156:D_N *819:53 6.62761e-06
6 *9150:A2 *9156:D_N 8.71761e-06
7 *9152:B2 *9156:D_N 0.000245158
*RES
1 *9155:X *9156:D_N 30.9036 
*END

*D_NET *319 0.00854467
*CONN
*I *9157:B I *D sky130_fd_sc_hd__and2_1
*I *9459:A1 I *D sky130_fd_sc_hd__mux2_1
*I *9156:X O *D sky130_fd_sc_hd__or4b_1
*CAP
1 *9157:B 0.000187991
2 *9459:A1 0
3 *9156:X 0.00133214
4 *319:24 0.00108368
5 *319:14 0.00222783
6 *9157:B *9086:A 0.000224564
7 *9157:B *9459:A0 0.000167436
8 *9157:B *9459:S 2.95726e-05
9 *9157:B *9824:A 0.000262504
10 *319:14 *9086:A 0
11 *319:14 *9148:A 0.000356028
12 *319:14 *9457:A0 5.71472e-05
13 *319:14 *798:20 1.17968e-05
14 *319:14 *820:65 0.00053662
15 *319:14 *824:23 8.57023e-05
16 *319:24 *9086:A 0.00043548
17 *319:24 *9459:A0 5.52302e-05
18 *319:24 *9459:S 0
19 *319:24 *9460:A 0.000164839
20 *9080:A *319:14 0.000102197
21 *9080:B *319:14 0.000258102
22 *9086:B *319:24 5.52238e-05
23 *9156:B *319:14 4.15914e-05
24 *9157:A *9157:B 4.88637e-05
25 *9457:A1 *319:14 0.000578035
26 *249:10 *319:14 7.90536e-05
27 *249:10 *319:24 7.29283e-05
28 *311:8 *319:14 8.00806e-05
29 *312:22 *319:14 1.00375e-05
*RES
1 *9156:X *319:14 46.0589 
2 *319:14 *319:24 17.2411 
3 *319:24 *9459:A1 9.3 
4 *319:24 *9157:B 15.175 
*END

*D_NET *320 0.000391723
*CONN
*I *9158:A I *D sky130_fd_sc_hd__buf_4
*I *9157:X O *D sky130_fd_sc_hd__and2_1
*CAP
1 *9158:A 0.000189194
2 *9157:X 0.000189194
3 *9158:A *9242:B2 0
4 *9158:A *321:8 1.33343e-05
5 *9158:A *405:42 0
*RES
1 *9157:X *9158:A 30.725 
*END

*D_NET *321 0.0101183
*CONN
*I *9354:A2 I *D sky130_fd_sc_hd__a21oi_1
*I *9357:A2 I *D sky130_fd_sc_hd__a21boi_1
*I *9358:A3 I *D sky130_fd_sc_hd__a31o_1
*I *9276:A2 I *D sky130_fd_sc_hd__a21o_1
*I *9361:A3 I *D sky130_fd_sc_hd__a31o_1
*I *9309:A2_N I *D sky130_fd_sc_hd__o2bb2a_1
*I *9159:B I *D sky130_fd_sc_hd__nand2_8
*I *9351:A2 I *D sky130_fd_sc_hd__a21boi_1
*I *9352:A3 I *D sky130_fd_sc_hd__a31o_1
*I *9360:A2 I *D sky130_fd_sc_hd__a21boi_1
*I *9355:A3 I *D sky130_fd_sc_hd__a31o_1
*I *9158:X O *D sky130_fd_sc_hd__buf_4
*CAP
1 *9354:A2 0.000118714
2 *9357:A2 6.43661e-05
3 *9358:A3 0
4 *9276:A2 0
5 *9361:A3 8.69499e-05
6 *9309:A2_N 0.000187192
7 *9159:B 0
8 *9351:A2 0
9 *9352:A3 3.48454e-05
10 *9360:A2 0.000185467
11 *9355:A3 0
12 *9158:X 0.00034276
13 *321:133 0.000485529
14 *321:120 0.000445063
15 *321:100 8.69499e-05
16 *321:80 0.000450081
17 *321:76 0.000677963
18 *321:59 0.000564703
19 *321:40 0.000305569
20 *321:21 0.000491124
21 *321:15 0.000407664
22 *321:8 0.000423248
23 *9309:A2_N *9250:B 0.000128154
24 *9309:A2_N *9285:A 0.000128154
25 *9309:A2_N *9310:B 2.79421e-05
26 *9352:A3 *405:69 7.43578e-06
27 *9354:A2 *9354:A1 4.43256e-05
28 *9354:A2 *9354:B1 7.4656e-05
29 *9354:A2 *9356:B1 5.62995e-05
30 *9354:A2 *9359:B1 6.05161e-06
31 *9357:A2 *9354:B1 7.32272e-05
32 *9357:A2 *9359:B1 4.43256e-05
33 *9357:A2 *736:36 5.33005e-05
34 *9360:A2 *9360:B1_N 0.000208666
35 *9360:A2 *9362:B1 0.000135093
36 *9360:A2 *870:6 4.556e-05
37 *9360:A2 *870:29 7.61504e-05
38 *9361:A3 *9361:A2 0.00014285
39 *9361:A3 *391:26 0.000377511
40 *9361:A3 *405:80 0.000132967
41 *321:8 *9355:B1 3.99614e-06
42 *321:15 *9355:B1 3.18676e-05
43 *321:21 *9355:A1 0.000152333
44 *321:21 *9360:B1_N 0
45 *321:21 *616:14 7.02772e-05
46 *321:21 *616:20 9.0192e-05
47 *321:21 *800:14 0
48 *321:40 *616:14 0.000189334
49 *321:40 *800:14 0
50 *321:59 *9351:A1 1.84183e-05
51 *321:59 *9352:A2 1.9814e-05
52 *321:59 *9353:A1 4.71935e-06
53 *321:59 *9353:B1 0.000110151
54 *321:59 *405:69 1.94879e-05
55 *321:59 *616:14 0.000188007
56 *321:59 *757:50 3.68879e-05
57 *321:59 *800:14 0
58 *321:76 *9353:A1 3.5403e-05
59 *321:76 *9603:RESET_B 0
60 *321:76 *731:34 9.74783e-05
61 *321:76 *735:72 0.000343334
62 *321:76 *757:50 0.000339074
63 *321:76 *897:82 7.38844e-05
64 *321:80 *9250:B 0
65 *321:80 *757:50 0
66 *321:80 *757:52 0
67 *321:80 *897:16 0.000202842
68 *321:80 *897:82 6.09476e-05
69 *321:120 *9355:A1 1.19309e-05
70 *321:120 *9355:B1 3.97543e-05
71 *321:120 *9358:A2 4.46186e-06
72 *321:120 *616:20 0.000198698
73 *321:120 *736:62 0
74 *321:133 *9356:B1 7.83659e-05
75 *321:133 *404:42 9.0145e-05
76 *321:133 *461:34 0.000238769
77 *321:133 *616:20 3.46786e-05
78 *321:133 *730:82 0
79 *321:133 *736:36 1.52978e-05
80 *321:133 *801:18 0.000183597
81 *9158:A *321:8 1.33343e-05
*RES
1 *9158:X *321:8 14.7821 
2 *321:8 *9355:A3 9.3 
3 *321:8 *321:15 1.35714 
4 *321:15 *321:21 9.30357 
5 *321:21 *9360:A2 19.4429 
6 *321:21 *321:40 2.55357 
7 *321:40 *9352:A3 14.3357 
8 *321:40 *321:59 8.54018 
9 *321:59 *9351:A2 9.3 
10 *321:59 *321:76 16.1205 
11 *321:76 *321:80 9.48214 
12 *321:80 *9159:B 9.3 
13 *321:80 *9309:A2_N 22.1214 
14 *321:76 *321:100 4.5 
15 *321:100 *9361:A3 13.1214 
16 *321:100 *9276:A2 9.3 
17 *321:15 *321:120 12.5 
18 *321:120 *9358:A3 9.3 
19 *321:120 *321:133 15.75 
20 *321:133 *9357:A2 11.0857 
21 *321:133 *9354:A2 12.4429 
*END

*D_NET *322 0.0397755
*CONN
*I *9314:A I *D sky130_fd_sc_hd__and3_1
*I *1044:DIODE I *D sky130_fd_sc_hd__diode_2
*I *1031:DIODE I *D sky130_fd_sc_hd__diode_2
*I *9288:A I *D sky130_fd_sc_hd__and4_1
*I *1035:DIODE I *D sky130_fd_sc_hd__diode_2
*I *9292:A I *D sky130_fd_sc_hd__and4_1
*I *1032:DIODE I *D sky130_fd_sc_hd__diode_2
*I *9297:A I *D sky130_fd_sc_hd__and4_1
*I *9301:A I *D sky130_fd_sc_hd__and4_1
*I *1038:DIODE I *D sky130_fd_sc_hd__diode_2
*I *9306:A I *D sky130_fd_sc_hd__and4_1
*I *1041:DIODE I *D sky130_fd_sc_hd__diode_2
*I *9454:S I *D sky130_fd_sc_hd__mux2_1
*I *1068:DIODE I *D sky130_fd_sc_hd__diode_2
*I *9440:S I *D sky130_fd_sc_hd__mux2_1
*I *9450:S I *D sky130_fd_sc_hd__mux2_1
*I *1073:DIODE I *D sky130_fd_sc_hd__diode_2
*I *9452:S I *D sky130_fd_sc_hd__mux2_1
*I *1072:DIODE I *D sky130_fd_sc_hd__diode_2
*I *9448:S I *D sky130_fd_sc_hd__mux2_1
*I *1071:DIODE I *D sky130_fd_sc_hd__diode_2
*I *9446:S I *D sky130_fd_sc_hd__mux2_1
*I *1069:DIODE I *D sky130_fd_sc_hd__diode_2
*I *910:DIODE I *D sky130_fd_sc_hd__diode_2
*I *9160:A I *D sky130_fd_sc_hd__inv_2
*I *9442:S I *D sky130_fd_sc_hd__mux2_1
*I *1074:DIODE I *D sky130_fd_sc_hd__diode_2
*I *1070:DIODE I *D sky130_fd_sc_hd__diode_2
*I *9444:S I *D sky130_fd_sc_hd__mux2_1
*I *1075:DIODE I *D sky130_fd_sc_hd__diode_2
*I *9159:Y O *D sky130_fd_sc_hd__nand2_8
*CAP
1 *9314:A 0.00017376
2 *1044:DIODE 0
3 *1031:DIODE 0.000365681
4 *9288:A 0
5 *1035:DIODE 0
6 *9292:A 0
7 *1032:DIODE 0.000221571
8 *9297:A 0.00013117
9 *9301:A 0
10 *1038:DIODE 0
11 *9306:A 0
12 *1041:DIODE 0
13 *9454:S 1.99857e-05
14 *1068:DIODE 5.07351e-05
15 *9440:S 5.1705e-05
16 *9450:S 0
17 *1073:DIODE 0
18 *9452:S 0
19 *1072:DIODE 0
20 *9448:S 0.000129542
21 *1071:DIODE 8.41202e-05
22 *9446:S 0
23 *1069:DIODE 0
24 *910:DIODE 0
25 *9160:A 8.61686e-05
26 *9442:S 3.7434e-05
27 *1074:DIODE 0
28 *1070:DIODE 0
29 *9444:S 5.34094e-05
30 *1075:DIODE 0
31 *9159:Y 0
32 *322:338 0.000538742
33 *322:316 0.000733651
34 *322:303 0.000526783
35 *322:281 0.000483552
36 *322:262 0.000424779
37 *322:260 0.000413258
38 *322:251 0.000536828
39 *322:236 0.000314011
40 *322:195 0.000189885
41 *322:150 0.000306376
42 *322:127 0.000450545
43 *322:112 0.000633515
44 *322:104 0.000288186
45 *322:102 0.000457448
46 *322:98 0.000755246
47 *322:90 0.000853038
48 *322:86 0.000504875
49 *322:77 0.000829936
50 *322:67 0.000896446
51 *322:65 0.000273947
52 *322:63 0.000329575
53 *322:45 0.000575165
54 *322:41 0.00110532
55 *322:37 0.000650441
56 *322:28 0.00323848
57 *322:26 0.00340925
58 *322:18 0.000385688
59 *322:16 0.000152753
60 *322:10 0.000395674
61 *322:6 0.000642414
62 *1031:DIODE *9286:B 1.74352e-05
63 *1031:DIODE *9288:B 1.90111e-05
64 *1031:DIODE *9288:C 0.000442622
65 *1031:DIODE *9289:A 5.71472e-05
66 *1031:DIODE *891:99 1.39841e-05
67 *1032:DIODE *9293:A 0.000108693
68 *1032:DIODE *9600:RESET_B 1.24469e-05
69 *1032:DIODE *745:49 0.000162358
70 *1032:DIODE *745:62 0.00012496
71 *1032:DIODE *894:50 8.33153e-05
72 *1068:DIODE *9236:A1 3.98018e-05
73 *1068:DIODE *539:60 5.43539e-05
74 *1071:DIODE *9142:A 0.000230482
75 *9297:A *9288:B 0
76 *9297:A *9297:C 5.68747e-05
77 *9297:A *9297:D 4.70592e-05
78 *9297:A *414:52 5.71472e-05
79 *9297:A *586:12 9.11806e-06
80 *9297:A *586:14 6.87975e-06
81 *9314:A *9326:A 3.6551e-05
82 *9314:A *9326:C 5.33005e-05
83 *9314:A *9424:A 0.000115268
84 *9314:A *587:42 0.000192934
85 *9440:S *539:60 2.04825e-05
86 *9440:S *820:65 5.33005e-05
87 *9442:S *9270:A 1.98839e-05
88 *9442:S *9442:A0 9.71197e-05
89 *9442:S *369:82 0.000137983
90 *9444:S *9122:A 0.000224583
91 *9444:S *347:78 0.000120519
92 *9448:S *9448:A0 9.71197e-05
93 *9448:S *9448:A1 3.57366e-05
94 *9454:S *610:22 1.04232e-05
95 *322:10 *9308:A 0.000220448
96 *322:10 *731:64 0.000301854
97 *322:10 *749:90 0.000137327
98 *322:16 *9302:A 4.18895e-05
99 *322:16 *414:14 3.69047e-06
100 *322:16 *414:24 1.21258e-05
101 *322:16 *731:64 0
102 *322:16 *742:12 9.90367e-05
103 *322:16 *749:90 0.000173804
104 *322:18 *9302:A 0.00014183
105 *322:18 *742:12 0.000185643
106 *322:26 *347:109 0.000320038
107 *322:26 *742:12 0.000320024
108 *322:26 *757:56 0
109 *322:28 *993:DIODE 0.000391
110 *322:28 *9089:B 0.000461447
111 *322:28 *404:42 0.000140846
112 *322:28 *405:14 0.000262504
113 *322:28 *791:100 1.02821e-05
114 *322:28 *791:108 2.89114e-05
115 *322:28 *801:18 0.000396898
116 *322:37 *9096:A 2.32517e-05
117 *322:37 *610:22 2.28598e-05
118 *322:41 *9096:A 5.74499e-06
119 *322:41 *9150:B1 0.000205788
120 *322:41 *610:22 4.87854e-05
121 *322:41 *819:53 3.69047e-06
122 *322:45 *9082:A 0
123 *322:45 *9108:A 9.88136e-05
124 *322:45 *9147:A 0
125 *322:45 *347:101 0
126 *322:45 *608:12 0.000171368
127 *322:45 *739:190 0.000123137
128 *322:45 *785:33 0
129 *322:45 *822:10 0.000109737
130 *322:63 *608:12 0.000148054
131 *322:63 *608:16 6.57032e-05
132 *322:65 *9138:A 5.52238e-05
133 *322:65 *608:16 8.56752e-05
134 *322:67 *9140:A 0.000137983
135 *322:67 *9450:A0 2.77258e-05
136 *322:67 *566:324 0.000421472
137 *322:67 *608:16 4.58194e-05
138 *322:77 *9114:A 4.03318e-05
139 *322:77 *9450:A0 0
140 *322:77 *9628:CLK 0
141 *322:77 *9628:RESET_B 0
142 *322:77 *9654:CLK 5.41609e-05
143 *322:77 *9700:RESET_B 3.82285e-05
144 *322:77 *566:324 5.71472e-05
145 *322:86 *9700:RESET_B 3.18676e-05
146 *322:86 *823:36 9.28602e-05
147 *322:90 *9452:A1 1.34703e-05
148 *322:90 *818:62 7.48091e-05
149 *322:90 *823:36 3.65178e-05
150 *322:98 *9141:A 5.35423e-05
151 *322:98 *9442:A0 0.000183334
152 *322:98 *818:62 6.42095e-05
153 *322:102 *9449:A 0.000102776
154 *322:104 *9449:A 0.000186662
155 *322:112 *1025:DIODE 0.000125724
156 *322:112 *9443:A 1.3701e-05
157 *322:112 *9449:A 5.71472e-05
158 *322:112 *347:22 0
159 *322:112 *369:56 0.00010326
160 *322:127 *1025:DIODE 4.53834e-05
161 *322:127 *9224:A1 0.000220186
162 *322:127 *9226:A 0.000557559
163 *322:127 *9230:A1 7.79781e-06
164 *322:127 *9270:A 3.54188e-05
165 *322:127 *9442:A1 3.57844e-05
166 *322:127 *347:22 0
167 *322:150 *9141:A 0
168 *322:150 *9446:A0 3.40128e-05
169 *322:150 *895:122 0
170 *322:195 *9236:A1 1.34792e-05
171 *322:195 *539:60 1.721e-05
172 *322:251 *9251:A 1.58163e-05
173 *322:251 *9306:C 0.000176596
174 *322:251 *9307:A 0
175 *322:251 *414:14 6.26559e-05
176 *322:251 *705:10 9.90367e-05
177 *322:251 *742:12 0.000271345
178 *322:260 *9297:C 2.95726e-05
179 *322:260 *9303:A 9.71197e-05
180 *322:260 *9303:C 2.10884e-06
181 *322:260 *9725:A 2.59355e-05
182 *322:260 *421:40 5.54432e-05
183 *322:260 *742:12 0.000694747
184 *322:262 *9288:B 0
185 *322:262 *586:12 1.78353e-05
186 *322:281 *1033:DIODE 7.02611e-05
187 *322:281 *9290:B 0.0002799
188 *322:281 *9292:D 0.000116631
189 *322:281 *9294:B 0.000167277
190 *322:281 *9295:A 3.18135e-05
191 *322:281 *9297:C 0.00036623
192 *322:281 *742:12 7.28784e-05
193 *322:281 *745:62 1.21859e-05
194 *322:281 *745:64 7.47029e-06
195 *322:281 *894:50 4.98055e-06
196 *322:303 *9288:B 0
197 *322:303 *9598:CLK 7.83366e-05
198 *322:303 *584:83 0
199 *322:303 *584:98 0
200 *322:303 *586:12 1.37292e-05
201 *322:316 *9288:B 4.47762e-05
202 *322:316 *404:42 0.00040381
203 *322:316 *584:98 0
204 *322:316 *587:10 0.000144773
205 *322:338 *9308:A 1.02504e-05
206 *322:338 *9424:A 8.07313e-05
207 *322:338 *587:42 2.07491e-05
208 *322:338 *731:64 7.4826e-05
209 *322:338 *749:120 7.25104e-05
210 *9101:B *322:28 4.70078e-05
211 *9105:A *322:28 9.90431e-05
212 *9106:A *322:28 0.000253534
213 *9150:B2 *322:41 0.000183985
214 *9151:A1 *322:77 3.75052e-05
215 *9151:B1 *322:77 0.000275094
216 *9151:C1 *322:45 0
217 *9151:C1 *322:195 0.000168939
218 *9152:B2 *322:45 4.46186e-06
219 *9152:B2 *322:63 5.6798e-06
220 *9152:B2 *322:195 0.00019384
221 *9152:C1 *9440:S 5.52302e-05
222 *9156:D_N *322:63 0.000123852
223 *9603:D *322:338 0.000141445
224 *9621:D *322:338 5.52238e-05
225 *9628:D *322:77 0.000100831
226 *9654:D *322:77 2.89016e-05
227 *252:6 *322:28 0.000944089
228 *253:12 *322:28 0.000227539
229 *310:10 *322:45 0
*RES
1 *9159:Y *322:6 13.8 
2 *322:6 *322:10 8.35714 
3 *322:10 *322:16 7.69643 
4 *322:16 *322:18 1.76786 
5 *322:18 *322:26 17.1964 
6 *322:26 *322:28 54.75 
7 *322:28 *1075:DIODE 9.3 
8 *322:28 *322:37 3.21429 
9 *322:37 *322:41 12.4286 
10 *322:41 *322:45 14.6429 
11 *322:45 *9444:S 11.4786 
12 *322:45 *1070:DIODE 9.3 
13 *322:41 *322:63 7.80357 
14 *322:63 *322:65 2.17857 
15 *322:65 *322:67 4.64286 
16 *322:67 *322:77 22.1786 
17 *322:77 *1074:DIODE 9.3 
18 *322:77 *322:86 2.91071 
19 *322:86 *322:90 5.375 
20 *322:90 *322:98 15.5893 
21 *322:98 *322:102 3.73214 
22 *322:102 *322:104 1.76786 
23 *322:104 *322:112 9.16071 
24 *322:112 *9442:S 15.1571 
25 *322:112 *322:127 14.5 
26 *322:127 *9160:A 10.6571 
27 *322:127 *910:DIODE 9.3 
28 *322:104 *1069:DIODE 9.3 
29 *322:102 *322:150 12.1607 
30 *322:150 *9446:S 9.3 
31 *322:150 *1071:DIODE 11.4786 
32 *322:98 *9448:S 11.9071 
33 *322:90 *1072:DIODE 9.3 
34 *322:86 *9452:S 9.3 
35 *322:67 *1073:DIODE 9.3 
36 *322:65 *9450:S 9.3 
37 *322:63 *322:195 7.50893 
38 *322:195 *9440:S 15.1482 
39 *322:195 *1068:DIODE 15.2911 
40 *322:37 *9454:S 9.72857 
41 *322:18 *1041:DIODE 9.3 
42 *322:16 *9306:A 9.3 
43 *322:10 *322:236 4.5 
44 *322:236 *1038:DIODE 9.3 
45 *322:236 *322:251 16.0179 
46 *322:251 *9301:A 9.3 
47 *322:251 *322:260 11.1964 
48 *322:260 *322:262 0.732143 
49 *322:262 *9297:A 16.5857 
50 *322:262 *322:281 17.3929 
51 *322:281 *1032:DIODE 19.4607 
52 *322:281 *9292:A 13.8 
53 *322:260 *322:303 3.16071 
54 *322:303 *1035:DIODE 13.8 
55 *322:303 *322:316 12.2143 
56 *322:316 *9288:A 9.3 
57 *322:316 *1031:DIODE 16.4071 
58 *322:6 *322:338 11.6429 
59 *322:338 *1044:DIODE 9.3 
60 *322:338 *9314:A 13.8714 
*END

*D_NET *323 0.00177916
*CONN
*I *9167:A2 I *D sky130_fd_sc_hd__a221o_1
*I *9168:A2 I *D sky130_fd_sc_hd__o2111a_1
*I *9161:Y O *D sky130_fd_sc_hd__inv_2
*CAP
1 *9167:A2 7.74286e-05
2 *9168:A2 0.000133868
3 *9161:Y 0.000149588
4 *323:8 0.000360885
5 *9167:A2 *9165:B1 0.000117552
6 *9167:A2 *9166:B1 9.90431e-05
7 *9167:A2 *9168:B1 2.89016e-05
8 *9167:A2 *729:24 0.000114457
9 *9168:A2 *9167:A1 5.71472e-05
10 *9168:A2 *9187:C1 6.9904e-05
11 *9168:A2 *616:20 4.56089e-05
12 *9168:A2 *866:38 8.6229e-06
13 *9168:A2 *873:28 1.33343e-05
14 *323:8 *9165:A2_N 0.000124868
15 *323:8 *325:10 0.000134189
16 *323:8 *348:343 3.28941e-05
17 *323:8 *616:20 9.886e-06
18 *323:8 *866:38 0.000200978
*RES
1 *9161:Y *323:8 17.8714 
2 *323:8 *9168:A2 16.2821 
3 *323:8 *9167:A2 16.1839 
*END

*D_NET *324 0.00123787
*CONN
*I *9167:B2 I *D sky130_fd_sc_hd__a221o_1
*I *9165:B1 I *D sky130_fd_sc_hd__o2bb2a_1
*I *9162:Y O *D sky130_fd_sc_hd__inv_2
*CAP
1 *9167:B2 4.01076e-05
2 *9165:B1 7.54115e-05
3 *9162:Y 0.000110533
4 *324:12 0.000226052
5 *9165:B1 *9167:C1 6.63821e-05
6 *9165:B1 *729:24 0.00026353
7 *9167:B2 *9167:C1 5.19144e-05
8 *9167:B2 *729:24 3.01445e-05
9 *9167:B2 *866:26 0
10 *324:12 *9167:A1 2.28335e-05
11 *324:12 *9168:C1 0.00012401
12 *324:12 *9587:D 5.52238e-05
13 *324:12 *872:16 5.41794e-05
14 *9167:A2 *9165:B1 0.000117552
*RES
1 *9162:Y *324:12 20.4786 
2 *324:12 *9165:B1 11.8893 
3 *324:12 *9167:B2 10.6438 
*END

*D_NET *325 0.00399635
*CONN
*I *9354:B1 I *D sky130_fd_sc_hd__a21oi_1
*I *9164:A1 I *D sky130_fd_sc_hd__o21ai_1
*I *9165:A2_N I *D sky130_fd_sc_hd__o2bb2a_1
*I *9163:Y O *D sky130_fd_sc_hd__inv_2
*CAP
1 *9354:B1 0.000269506
2 *9164:A1 0.000154856
3 *9165:A2_N 0.000164154
4 *9163:Y 0.000119433
5 *325:10 0.000577353
6 *325:8 0.000647283
7 *9164:A1 *9166:A1 1.97695e-05
8 *9164:A1 *9187:B2 9.3111e-05
9 *9164:A1 *9428:S 0
10 *9164:A1 *369:290 0.000151688
11 *9164:A1 *865:25 0.000102044
12 *9165:A2_N *9166:B1 0.000259403
13 *9354:B1 *9354:A1 0.000227539
14 *9354:B1 *9594:RESET_B 0.000164934
15 *9354:B1 *616:20 0.000133711
16 *9354:B1 *736:36 2.95726e-05
17 *9354:B1 *871:10 5.52302e-05
18 *9354:B1 *873:20 0
19 *325:8 *347:103 0.000186662
20 *325:10 *9166:B1 1.02504e-05
21 *325:10 *348:343 0
22 *325:10 *616:20 0.000222913
23 *325:10 *873:20 0
24 *9354:A2 *9354:B1 7.4656e-05
25 *9357:A2 *9354:B1 7.32272e-05
26 *323:8 *9165:A2_N 0.000124868
27 *323:8 *325:10 0.000134189
*RES
1 *9163:Y *325:8 15.5679 
2 *325:8 *325:10 5.89286 
3 *325:10 *9165:A2_N 16.8 
4 *325:10 *9164:A1 17.7821 
5 *325:8 *9354:B1 20.9786 
*END

*D_NET *326 0.000655731
*CONN
*I *9166:A2 I *D sky130_fd_sc_hd__o21a_1
*I *9164:Y O *D sky130_fd_sc_hd__o21ai_1
*CAP
1 *9166:A2 5.27958e-05
2 *9164:Y 5.27958e-05
3 *9166:A2 *9187:B2 0.00022459
4 *9166:A2 *865:25 5.71472e-05
5 *9166:A2 *866:38 0.000268403
*RES
1 *9164:Y *9166:A2 21.1893 
*END

*D_NET *327 0.00104538
*CONN
*I *9166:B1 I *D sky130_fd_sc_hd__o21a_1
*I *9165:X O *D sky130_fd_sc_hd__o2bb2a_1
*CAP
1 *9166:B1 0.000194821
2 *9165:X 0.000194821
3 *9166:B1 *9167:C1 0
4 *9166:B1 *9195:B2 6.79581e-05
5 *9166:B1 *616:20 0.00012416
6 *9166:B1 *729:24 1.54142e-05
7 *9166:B1 *866:38 7.95065e-05
8 *9165:A2_N *9166:B1 0.000259403
9 *9167:A2 *9166:B1 9.90431e-05
10 *325:10 *9166:B1 1.02504e-05
*RES
1 *9165:X *9166:B1 32.6893 
*END

*D_NET *328 0.00100407
*CONN
*I *9167:C1 I *D sky130_fd_sc_hd__a221o_1
*I *9166:X O *D sky130_fd_sc_hd__o21a_1
*CAP
1 *9167:C1 0.000357829
2 *9166:X 0.000357829
3 *9167:C1 *9167:A1 0
4 *9167:C1 *9168:B1 9.25014e-06
5 *9167:C1 *9168:C1 5.33005e-05
6 *9167:C1 *9430:S 3.69047e-06
7 *9167:C1 *369:290 7.69776e-06
8 *9167:C1 *616:20 2.94729e-05
9 *9167:C1 *729:24 5.74499e-06
10 *9167:C1 *872:10 6.09572e-05
11 *9165:B1 *9167:C1 6.63821e-05
12 *9166:B1 *9167:C1 0
13 *9167:B2 *9167:C1 5.19144e-05
*RES
1 *9166:X *9167:C1 33.35 
*END

*D_NET *329 0.00097076
*CONN
*I *9168:B1 I *D sky130_fd_sc_hd__o2111a_1
*I *9167:X O *D sky130_fd_sc_hd__a221o_1
*CAP
1 *9168:B1 0.000262659
2 *9167:X 0.000262659
3 *9168:B1 *9167:A1 0.000167871
4 *9168:B1 *9168:C1 1.33343e-05
5 *9168:B1 *9168:D1 5.33005e-05
6 *9168:B1 *9169:B 3.4323e-06
7 *9168:B1 *616:20 0.000149413
8 *9168:B1 *730:90 9.69119e-06
9 *9168:B1 *872:10 1.02481e-05
10 *9167:A2 *9168:B1 2.89016e-05
11 *9167:C1 *9168:B1 9.25014e-06
*RES
1 *9167:X *9168:B1 32.7964 
*END

*D_NET *330 0.00134565
*CONN
*I *9170:A I *D sky130_fd_sc_hd__clkbuf_1
*I *9169:X O *D sky130_fd_sc_hd__and2_1
*CAP
1 *9170:A 0.00034702
2 *9169:X 0.00034702
3 *9170:A *9323:B 9.96409e-05
4 *9170:A *9436:A1 4.05256e-05
5 *9170:A *616:34 0.000153054
6 *9170:A *709:14 2.88424e-05
7 *9170:A *709:27 2.34204e-05
8 *9170:A *719:14 0.000168146
9 *9170:A *720:16 8.46829e-05
10 *9170:A *720:18 5.33005e-05
11 *9170:A *751:52 0
*RES
1 *9169:X *9170:A 43.4393 
*END

*D_NET *331 0.00367273
*CONN
*I *9172:C I *D sky130_fd_sc_hd__or3_2
*I *9342:A1 I *D sky130_fd_sc_hd__a21boi_1
*I *9347:A2 I *D sky130_fd_sc_hd__o21a_1
*I *9343:B I *D sky130_fd_sc_hd__nor2_1
*I *9344:B I *D sky130_fd_sc_hd__and2_1
*I *9171:X O *D sky130_fd_sc_hd__or2_1
*CAP
1 *9172:C 0.000265309
2 *9342:A1 0
3 *9347:A2 0.000312532
4 *9343:B 0
5 *9344:B 3.18573e-05
6 *9171:X 0
7 *331:18 9.33596e-05
8 *331:14 0.000455931
9 *331:8 0.000134863
10 *331:4 0.000318274
11 *9172:C *1179:DIODE 0.000223592
12 *9172:C *9337:A 0
13 *9172:C *9337:B 7.1681e-05
14 *9172:C *9342:A2 4.38128e-05
15 *9172:C *9589:RESET_B 0.000143804
16 *9172:C *9590:CLK 0.000150618
17 *9172:C *599:30 0.000226021
18 *9172:C *781:8 8.66324e-05
19 *9344:B *9344:A 5.71472e-05
20 *9344:B *9345:A1 5.33334e-05
21 *9344:B *9345:A2 7.43578e-06
22 *9344:B *675:12 4.88637e-05
23 *9347:A2 *9347:A1 0.000386892
24 *9347:A2 *9348:C 1.55885e-05
25 *331:8 *9342:A2 5.52302e-05
26 *331:8 *9347:A1 1.38323e-05
27 *331:14 *9345:A1 2.39876e-05
28 *331:14 *9347:A1 0.000135028
29 *331:18 *9345:A1 3.69697e-05
30 *331:18 *719:14 0
31 *9589:D *331:14 5.41794e-05
32 *9589:D *331:18 0.00012401
33 *9590:D *9172:C 2.89016e-05
34 *9590:D *331:8 4.87953e-05
35 *9590:D *331:14 2.42516e-05
*RES
1 *9171:X *331:4 9.3 
2 *331:4 *331:8 1.375 
3 *331:8 *331:14 6.58929 
4 *331:14 *331:18 6.14286 
5 *331:18 *9344:B 10.6571 
6 *331:18 *9343:B 9.3 
7 *331:14 *9347:A2 18.3536 
8 *331:8 *9342:A1 9.3 
9 *331:4 *9172:C 26.9071 
*END

*D_NET *332 0.00504169
*CONN
*I *9341:C I *D sky130_fd_sc_hd__and3b_1
*I *9349:A1 I *D sky130_fd_sc_hd__o211a_1
*I *9338:B I *D sky130_fd_sc_hd__and3_1
*I *9173:A1 I *D sky130_fd_sc_hd__mux2_1
*I *9346:A I *D sky130_fd_sc_hd__inv_2
*I *9172:X O *D sky130_fd_sc_hd__or3_2
*CAP
1 *9341:C 3.55455e-05
2 *9349:A1 0
3 *9338:B 0.000571754
4 *9173:A1 0
5 *9346:A 0.000225697
6 *9172:X 0.000111456
7 *332:33 0.000665775
8 *332:20 0.000387835
9 *332:14 0.000188087
10 *332:10 0.000266971
11 *9338:B *9338:A 4.09678e-05
12 *9338:B *9338:C 9.33978e-07
13 *9338:B *9348:A 5.96516e-05
14 *9338:B *9348:B 1.97695e-05
15 *9338:B *9817:A 0.000443648
16 *9338:B *601:22 5.54353e-05
17 *9341:C *9172:A 9.41642e-05
18 *9341:C *9349:B1 0.000137983
19 *9346:A *1180:DIODE 3.51442e-05
20 *9346:A *1238:DIODE 0
21 *9346:A *9348:A 0
22 *9346:A *653:27 0
23 *9346:A *744:25 9.54385e-05
24 *9346:A *744:27 0.000114759
25 *332:10 *9172:A 0.000268396
26 *332:10 *9337:B 0.000286312
27 *332:10 *9349:A2 0
28 *332:14 *9324:A 1.40034e-05
29 *332:14 *9337:B 1.21258e-05
30 *332:14 *9349:A2 4.22908e-05
31 *332:14 *9349:B1 0.000175892
32 *332:14 *9349:C1 5.33005e-05
33 *332:14 *445:6 1.02936e-05
34 *332:14 *445:19 2.42547e-05
35 *332:20 *9324:A 0.000192435
36 *332:20 *9349:A2 3.57366e-05
37 *332:20 *445:6 0.000272371
38 *332:33 *1238:DIODE 0
39 *332:33 *9324:A 0
40 *332:33 *9324:B_N 0.000103267
41 *332:33 *9348:A 0
42 *9592:D *9346:A 0
*RES
1 *9172:X *332:10 13.4607 
2 *332:10 *332:14 3.01786 
3 *332:14 *332:20 7.51786 
4 *332:20 *9346:A 18.4786 
5 *332:20 *332:33 6.44643 
6 *332:33 *9173:A1 9.3 
7 *332:33 *9338:B 19.1214 
8 *332:14 *9349:A1 9.3 
9 *332:10 *9341:C 10.6571 
*END

*D_NET *333 0.00234276
*CONN
*I *9174:A I *D sky130_fd_sc_hd__buf_1
*I *9173:X O *D sky130_fd_sc_hd__mux2_1
*CAP
1 *9174:A 0.000980176
2 *9173:X 0.000980176
3 *9174:A *9586:D 5.67058e-06
4 *9174:A *9586:RESET_B 9.09013e-05
5 *9174:A *9817:A 3.18676e-05
6 *9174:A *599:67 0.000253965
*RES
1 *9173:X *9174:A 32.725 
*END

*D_NET *334 0.00273243
*CONN
*I *9186:A2 I *D sky130_fd_sc_hd__a32o_1
*I *9194:B I *D sky130_fd_sc_hd__and3_1
*I *9322:A I *D sky130_fd_sc_hd__and3_1
*I *9176:C I *D sky130_fd_sc_hd__and3b_2
*I *9175:Y O *D sky130_fd_sc_hd__nor2_1
*CAP
1 *9186:A2 8.12299e-05
2 *9194:B 0.000126101
3 *9322:A 7.83011e-05
4 *9176:C 0
5 *9175:Y 4.19004e-05
6 *334:25 0.000329402
7 *334:14 0.000395417
8 *334:8 0.000393548
9 *9186:A2 *9181:C1 0
10 *9186:A2 *9186:A1 1.02504e-05
11 *9186:A2 *9186:A3 0.000148189
12 *9194:B *709:35 0.000183726
13 *9322:A *931:DIODE 0.00012501
14 *9322:A *9194:A 8.5896e-05
15 *9322:A *709:39 2.26424e-05
16 *9322:A *709:45 4.46186e-06
17 *334:8 *899:28 5.33005e-05
18 *334:14 *9186:A3 0.000112323
19 *334:14 *9196:A3 5.01117e-05
20 *334:14 *335:22 5.03126e-05
21 *334:14 *338:25 7.6644e-05
22 *334:14 *698:126 4.79183e-05
23 *334:14 *720:49 1.98839e-05
24 *334:14 *720:58 5.52238e-05
25 *334:25 *931:DIODE 0.000114617
26 *334:25 *9194:A 3.04495e-05
27 *334:25 *335:22 3.89596e-05
28 *334:25 *335:86 5.66157e-05
*RES
1 *9175:Y *334:8 14.3357 
2 *334:8 *334:14 9.27232 
3 *334:14 *9176:C 9.3 
4 *334:14 *334:25 7.04911 
5 *334:25 *9322:A 16.05 
6 *334:25 *9194:B 15.5679 
7 *334:8 *9186:A2 15.7464 
*END

*D_NET *335 0.0128279
*CONN
*I *9181:A2 I *D sky130_fd_sc_hd__a221o_1
*I *9203:A2 I *D sky130_fd_sc_hd__a221o_1
*I *9199:A2 I *D sky130_fd_sc_hd__a221o_1
*I *9193:A2 I *D sky130_fd_sc_hd__a21o_1
*I *9214:A2 I *D sky130_fd_sc_hd__a21o_1
*I *9206:B1 I *D sky130_fd_sc_hd__a221o_1
*I *9210:A2 I *D sky130_fd_sc_hd__a21o_1
*I *9176:X O *D sky130_fd_sc_hd__and3b_2
*CAP
1 *9181:A2 0.000100476
2 *9203:A2 0.000534136
3 *9199:A2 5.6217e-06
4 *9193:A2 0
5 *9214:A2 0
6 *9206:B1 3.82644e-05
7 *9210:A2 0.00110442
8 *9176:X 0
9 *335:101 0.00120249
10 *335:86 0.000769396
11 *335:40 0.001379
12 *335:32 0.000958985
13 *335:22 0.00120264
14 *335:4 0.000675859
15 *9181:A2 *9181:A1 0.000133343
16 *9181:A2 *9190:A1 2.89016e-05
17 *9181:A2 *9204:A1 7.6644e-05
18 *9181:A2 *337:165 9.6552e-05
19 *9199:A2 *341:36 1.46576e-05
20 *9199:A2 *730:98 7.13226e-06
21 *9203:A2 *9203:B1 2.77007e-05
22 *9203:A2 *9625:CLK 0.00010096
23 *9203:A2 *348:322 0.000123095
24 *9203:A2 *732:50 3.32865e-05
25 *9206:B1 *9206:A2 5.62942e-05
26 *9206:B1 *9206:B2 3.68633e-05
27 *9206:B1 *698:27 1.38323e-05
28 *9210:A2 *9206:A2 2.3093e-05
29 *9210:A2 *9210:B1 4.1331e-06
30 *9210:A2 *9211:B 0
31 *9210:A2 *698:18 2.14757e-05
32 *9210:A2 *698:27 0.000268396
33 *9210:A2 *743:90 0.000125724
34 *335:22 *9183:C 2.05938e-05
35 *335:22 *9184:A_N 0.000136958
36 *335:22 *9193:A1 9.41642e-05
37 *335:22 *619:68 0.00014576
38 *335:22 *698:126 7.6644e-05
39 *335:22 *709:35 8.17186e-05
40 *335:22 *709:71 4.27437e-05
41 *335:22 *720:49 2.59355e-05
42 *335:22 *720:58 2.88056e-05
43 *335:32 *960:DIODE 1.59373e-05
44 *335:32 *9179:B 0
45 *335:32 *9183:C 6.18913e-06
46 *335:32 *9193:A1 3.32731e-05
47 *335:32 *9193:B1 9.76491e-05
48 *335:32 *9196:A2 1.02936e-05
49 *335:32 *9196:A3 1.57523e-05
50 *335:32 *9214:A1 1.02132e-05
51 *335:32 *9214:B1 2.84026e-05
52 *335:32 *9215:B 0.00035256
53 *335:32 *616:48 3.29853e-05
54 *335:32 *709:71 1.24368e-05
55 *335:40 *960:DIODE 0.00031596
56 *335:40 *9206:B2 0.000198698
57 *335:40 *862:27 0.000200406
58 *335:86 *923:DIODE 1.02504e-05
59 *335:86 *931:DIODE 5.94339e-05
60 *335:86 *9180:C 0.000195555
61 *335:86 *9194:A 3.34366e-05
62 *335:86 *9194:C 3.92757e-05
63 *335:86 *9195:A2 0.000220448
64 *335:86 *404:79 0
65 *335:101 *923:DIODE 0.000113038
66 *335:101 *9181:A1 6.20855e-06
67 *335:101 *9190:A1 9.4175e-05
68 *335:101 *9195:A2 3.17148e-05
69 *335:101 *9199:B2 7.08001e-05
70 *335:101 *9435:A 0.000118824
71 *335:101 *341:53 0.000488799
72 *335:101 *348:322 2.69359e-05
73 *335:101 *377:16 0
74 *335:101 *404:71 0
75 *335:101 *868:14 2.56601e-05
76 *9625:D *9181:A2 0
77 *334:14 *335:22 5.03126e-05
78 *334:25 *335:22 3.89596e-05
79 *334:25 *335:86 5.66157e-05
*RES
1 *9176:X *335:4 9.3 
2 *335:4 *335:22 18.3571 
3 *335:22 *335:32 10.4643 
4 *335:32 *335:40 15.375 
5 *335:40 *9210:A2 37.6571 
6 *335:40 *9206:B1 10.6929 
7 *335:32 *9214:A2 9.3 
8 *335:22 *9193:A2 9.3 
9 *335:4 *335:86 10.1429 
10 *335:86 *9199:A2 13.9473 
11 *335:86 *335:101 16.4286 
12 *335:101 *9203:A2 16.8 
13 *335:101 *9181:A2 21.4964 
*END

*D_NET *336 0.00221091
*CONN
*I *9178:A I *D sky130_fd_sc_hd__buf_4
*I *9205:B1 I *D sky130_fd_sc_hd__a22o_1
*I *9213:B1 I *D sky130_fd_sc_hd__a22o_1
*I *9177:X O *D sky130_fd_sc_hd__and4bb_1
*CAP
1 *9178:A 8.60805e-05
2 *9205:B1 8.61788e-06
3 *9213:B1 0.000106209
4 *9177:X 0.000182895
5 *336:18 0.00033108
6 *336:10 0.00048523
7 *9178:A *927:DIODE 0.000147862
8 *9178:A *337:32 0
9 *9213:B1 *9205:B2 6.77229e-05
10 *9213:B1 *9210:A1 0.000115414
11 *9213:B1 *9213:A1 3.58638e-05
12 *9213:B1 *9214:B1 0.00013921
13 *336:10 *927:DIODE 4.42509e-05
14 *336:10 *9191:C 5.65955e-05
15 *336:10 *9205:B2 0
16 *336:10 *619:51 8.6229e-06
17 *336:10 *619:160 0.000133146
18 *336:18 *9205:A2 0.000202378
19 *336:18 *9210:A1 2.28598e-05
20 *336:18 *9214:B1 1.24368e-05
21 *336:18 *899:28 2.44318e-05
*RES
1 *9177:X *336:10 16.8893 
2 *336:10 *336:18 8.35714 
3 *336:18 *9213:B1 12.7286 
4 *336:18 *9205:B1 9.72857 
5 *336:10 *9178:A 15.7464 
*END

*D_NET *337 0.0466296
*CONN
*I *942:DIODE I *D sky130_fd_sc_hd__diode_2
*I *1000:DIODE I *D sky130_fd_sc_hd__diode_2
*I *997:DIODE I *D sky130_fd_sc_hd__diode_2
*I *969:DIODE I *D sky130_fd_sc_hd__diode_2
*I *9221:B1 I *D sky130_fd_sc_hd__a22o_1
*I *9236:B1 I *D sky130_fd_sc_hd__a22o_1
*I *986:DIODE I *D sky130_fd_sc_hd__diode_2
*I *982:DIODE I *D sky130_fd_sc_hd__diode_2
*I *9239:B1 I *D sky130_fd_sc_hd__a22o_1
*I *965:DIODE I *D sky130_fd_sc_hd__diode_2
*I *9218:B1 I *D sky130_fd_sc_hd__a22o_1
*I *979:DIODE I *D sky130_fd_sc_hd__diode_2
*I *9230:B1 I *D sky130_fd_sc_hd__a22o_1
*I *9233:B1 I *D sky130_fd_sc_hd__a22o_1
*I *990:DIODE I *D sky130_fd_sc_hd__diode_2
*I *973:DIODE I *D sky130_fd_sc_hd__diode_2
*I *9224:B1 I *D sky130_fd_sc_hd__a22o_1
*I *9245:B1 I *D sky130_fd_sc_hd__a22o_1
*I *9249:B1 I *D sky130_fd_sc_hd__a22o_1
*I *9242:B1 I *D sky130_fd_sc_hd__a22o_1
*I *994:DIODE I *D sky130_fd_sc_hd__diode_2
*I *9181:B1 I *D sky130_fd_sc_hd__a221o_1
*I *950:DIODE I *D sky130_fd_sc_hd__diode_2
*I *9202:B1 I *D sky130_fd_sc_hd__a22o_1
*I *926:DIODE I *D sky130_fd_sc_hd__diode_2
*I *945:DIODE I *D sky130_fd_sc_hd__diode_2
*I *9198:B1 I *D sky130_fd_sc_hd__a22o_1
*I *9192:B1 I *D sky130_fd_sc_hd__a22o_1
*I *9209:B1 I *D sky130_fd_sc_hd__a22o_1
*I *956:DIODE I *D sky130_fd_sc_hd__diode_2
*I *976:DIODE I *D sky130_fd_sc_hd__diode_2
*I *9227:B1 I *D sky130_fd_sc_hd__a22o_1
*I *9178:X O *D sky130_fd_sc_hd__buf_4
*CAP
1 *942:DIODE 3.71704e-05
2 *1000:DIODE 0
3 *997:DIODE 0
4 *969:DIODE 0
5 *9221:B1 0.000127238
6 *9236:B1 0
7 *986:DIODE 0
8 *982:DIODE 0
9 *9239:B1 2.21451e-05
10 *965:DIODE 0
11 *9218:B1 0
12 *979:DIODE 0.00046575
13 *9230:B1 1.89495e-05
14 *9233:B1 0
15 *990:DIODE 8.5642e-05
16 *973:DIODE 0
17 *9224:B1 0.000183544
18 *9245:B1 0.000118584
19 *9249:B1 0
20 *9242:B1 5.23496e-05
21 *994:DIODE 0.000172884
22 *9181:B1 0.000120344
23 *950:DIODE 0
24 *9202:B1 0.000352629
25 *926:DIODE 0.000126116
26 *945:DIODE 0
27 *9198:B1 7.74427e-05
28 *9192:B1 1.50081e-05
29 *9209:B1 2.23854e-05
30 *956:DIODE 0
31 *976:DIODE 0
32 *9227:B1 0.00023774
33 *9178:X 7.94885e-05
34 *337:339 0.00104392
35 *337:325 0.000857739
36 *337:315 0.000461655
37 *337:306 0.00027056
38 *337:273 0.000490748
39 *337:267 0.000447467
40 *337:265 0.000226055
41 *337:261 0.000747146
42 *337:257 0.00112103
43 *337:253 0.000866346
44 *337:243 0.000871535
45 *337:237 0.000751138
46 *337:235 0.00116611
47 *337:220 0.00133433
48 *337:216 0.00202341
49 *337:197 0.00203355
50 *337:193 0.000477382
51 *337:176 0.000375411
52 *337:165 0.00125783
53 *337:144 0.00128761
54 *337:114 0.000606856
55 *337:112 0.000472653
56 *337:96 0.000126116
57 *337:94 0.000149177
58 *337:46 0.000877345
59 *337:34 0.000678639
60 *337:32 0.00185257
61 *337:22 0.00214953
62 *337:16 0.000442315
63 *337:12 0.000177073
64 *337:8 0.000195024
65 *926:DIODE *9203:B2 0.00018372
66 *942:DIODE *9192:A2 0.000139907
67 *942:DIODE *341:27 4.51611e-05
68 *979:DIODE *9715:RESET_B 0
69 *979:DIODE *394:8 1.02504e-05
70 *994:DIODE *904:DIODE 0.000274294
71 *9181:B1 *9181:B2 3.04785e-05
72 *9181:B1 *9228:B 3.57366e-05
73 *9181:B1 *377:16 0.00018372
74 *9192:B1 *9192:A1 2.73185e-05
75 *9192:B1 *9198:A1 5.52302e-05
76 *9198:B1 *9198:B2 3.67257e-05
77 *9198:B1 *344:310 8.25843e-06
78 *9202:B1 *9202:A1 0.000102096
79 *9202:B1 *9203:C1 1.83053e-05
80 *9202:B1 *9228:B 1.48543e-05
81 *9202:B1 *344:65 2.56601e-05
82 *9202:B1 *369:280 8.15297e-05
83 *9202:B1 *732:62 7.54868e-05
84 *9202:B1 *790:24 7.68318e-05
85 *9202:B1 *792:49 1.00332e-05
86 *9202:B1 *793:26 0
87 *9209:B1 *9209:B2 0
88 *9221:B1 *9221:A2 8.7498e-05
89 *9224:B1 *9224:B2 3.18676e-05
90 *9224:B1 *369:190 0
91 *9227:B1 *9247:A 0
92 *9227:B1 *369:261 0.000180637
93 *9227:B1 *739:190 0
94 *9230:B1 *347:22 4.32258e-05
95 *9230:B1 *369:129 5.80706e-06
96 *9230:B1 *369:158 1.08524e-05
97 *9239:B1 *9239:A2 5.7661e-06
98 *9239:B1 *344:239 6.10501e-05
99 *9242:B1 *9242:A1 6.05161e-06
100 *9242:B1 *9242:A2 0
101 *9242:B1 *9242:B2 1.73305e-05
102 *9245:B1 *9245:B2 0.000218517
103 *9245:B1 *757:18 2.96514e-05
104 *9245:B1 *798:31 0
105 *337:8 *9186:B2 0
106 *337:8 *9192:A2 6.26177e-05
107 *337:8 *9193:B1 4.87854e-05
108 *337:8 *341:27 6.05161e-06
109 *337:12 *9203:B1 0.000169579
110 *337:12 *732:44 0.000167865
111 *337:16 *9198:B2 1.00733e-05
112 *337:22 *927:DIODE 9.79244e-05
113 *337:22 *928:DIODE 0.000315564
114 *337:22 *344:61 1.00073e-05
115 *337:22 *344:303 1.15281e-05
116 *337:22 *344:310 2.65133e-05
117 *337:22 *790:24 0.000114142
118 *337:32 *927:DIODE 0
119 *337:32 *9192:A1 0.000987013
120 *337:32 *9209:A1 3.18676e-05
121 *337:32 *9209:A2 0.000153959
122 *337:32 *9209:B2 1.21289e-05
123 *337:32 *790:24 3.43995e-05
124 *337:32 *793:26 0
125 *337:32 *857:35 0.00142489
126 *337:34 *9209:A1 4.72917e-05
127 *337:34 *9209:B2 9.60875e-05
128 *337:34 *857:35 0.000169359
129 *337:46 *9109:A 0
130 *337:46 *9209:B2 1.33343e-05
131 *337:46 *9247:A 0
132 *337:46 *9703:RESET_B 0
133 *337:46 *566:234 0
134 *337:46 *739:167 0
135 *337:46 *815:10 0
136 *337:46 *857:35 0.000363837
137 *337:46 *861:19 0
138 *337:94 *9203:B1 0.00026034
139 *337:94 *732:44 0.000268173
140 *337:112 *9203:B1 0.000184448
141 *337:112 *348:198 8.15095e-05
142 *337:112 *732:44 6.39829e-05
143 *337:112 *732:48 2.29078e-05
144 *337:114 *9228:B 4.80089e-05
145 *337:114 *348:204 2.79421e-05
146 *337:144 *9228:B 2.15245e-05
147 *337:144 *348:204 1.21258e-05
148 *337:165 *1191:DIODE 0
149 *337:165 *9181:A1 1.34652e-05
150 *337:165 *9181:B2 8.66619e-06
151 *337:165 *9204:A1 0.00012798
152 *337:165 *9244:A 0.00020634
153 *337:165 *9275:A 0
154 *337:165 *9625:SET_B 0
155 *337:165 *377:16 2.13481e-06
156 *337:165 *744:236 0
157 *337:165 *791:108 0
158 *337:193 *9242:B2 0.000191403
159 *337:193 *814:41 0.000117189
160 *337:197 *9249:A1 9.3111e-05
161 *337:197 *9249:B2 1.73088e-05
162 *337:216 *9249:B2 0.0001827
163 *337:216 *757:34 0.000276582
164 *337:216 *792:49 0.000362825
165 *337:220 *743:96 7.02611e-05
166 *337:220 *757:34 0.000409788
167 *337:235 *9245:B2 0.000357971
168 *337:235 *9318:C 0.000191163
169 *337:235 *9655:RESET_B 0.000267821
170 *337:235 *372:18 0.00073665
171 *337:235 *442:328 0
172 *337:235 *740:34 0.000389847
173 *337:235 *757:18 0.00020933
174 *337:237 *372:18 0.00018077
175 *337:243 *9221:A2 7.61932e-05
176 *337:243 *9221:B2 2.60984e-05
177 *337:243 *9236:A2 6.0038e-05
178 *337:243 *9319:A 1.41029e-05
179 *337:243 *9514:B1 8.00806e-05
180 *337:243 *9821:A 0.000122101
181 *337:243 *538:59 6.16744e-05
182 *337:243 *788:8 3.90513e-05
183 *337:253 *9236:A2 0.00021559
184 *337:253 *9319:A 5.24274e-05
185 *337:253 *441:10 0.00018372
186 *337:253 *537:14 1.65558e-05
187 *337:253 *737:22 0.00017064
188 *337:257 *440:25 9.22103e-06
189 *337:257 *549:16 0.000451463
190 *337:257 *737:22 0.000117621
191 *337:261 *9504:A3 1.98839e-05
192 *337:261 *9512:B1 2.27416e-05
193 *337:261 *9513:A3 7.54972e-05
194 *337:261 *9513:B1 5.19842e-06
195 *337:261 *344:239 0.000238835
196 *337:261 *549:16 0.000232399
197 *337:265 *344:239 2.42516e-05
198 *337:265 *344:241 3.69047e-06
199 *337:267 *9224:B2 0
200 *337:267 *9239:A1 0.000101545
201 *337:273 *9224:B2 0
202 *337:273 *9239:A1 0.00020112
203 *337:273 *369:190 0.000320024
204 *337:273 *369:201 5.71472e-05
205 *337:306 *9218:B2 0.000100831
206 *337:306 *9224:B2 0
207 *337:306 *9233:A2 6.8646e-06
208 *337:306 *9239:A1 5.83304e-05
209 *337:306 *596:8 6.82922e-05
210 *337:315 *9233:A1 2.1195e-05
211 *337:315 *9233:A2 2.55315e-05
212 *337:315 *9233:B2 4.71072e-05
213 *337:315 *348:45 9.90367e-05
214 *337:325 *963:DIODE 1.04232e-05
215 *337:325 *9224:B2 0
216 *337:325 *9234:B 0.0002678
217 *337:325 *348:45 1.18064e-05
218 *337:325 *863:54 0.000177705
219 *337:339 *9189:A 4.87953e-05
220 *337:339 *9230:B2 4.43142e-05
221 *337:339 *9231:B 0.000100823
222 *337:339 *9234:B 0
223 *337:339 *9266:A 4.51526e-05
224 *337:339 *9266:C 0
225 *337:339 *347:16 5.01213e-05
226 *337:339 *347:22 1.65337e-05
227 *337:339 *348:12 0.000136958
228 *337:339 *348:39 0
229 *337:339 *369:158 0.000140107
230 *337:339 *741:130 6.60068e-05
231 *337:339 *787:6 5.33005e-05
232 *9072:A *337:216 0.000183713
233 *9085:B *337:216 0.000182592
234 *9093:A *337:216 1.38167e-05
235 *9109:B *337:46 0.000368126
236 *9178:A *337:32 0
237 *9181:A2 *337:165 9.6552e-05
238 *9456:A2 *337:165 0.000267814
239 *9456:A2 *337:176 0.000119618
240 *9456:A2 *337:193 0.000230233
241 *9625:D *337:165 5.26091e-05
242 *238:14 *337:46 4.52236e-05
243 *248:10 *337:216 2.89114e-05
244 *256:14 *337:216 0.000228949
245 *299:27 *337:193 0.000148903
*RES
1 *9178:X *337:8 11.0857 
2 *337:8 *337:12 6.75 
3 *337:12 *337:16 4.92857 
4 *337:16 *337:22 11.1964 
5 *337:22 *337:32 31.875 
6 *337:32 *337:34 1.76786 
7 *337:34 *337:46 22.7321 
8 *337:46 *9227:B1 22.7286 
9 *337:46 *976:DIODE 9.3 
10 *337:34 *956:DIODE 9.3 
11 *337:32 *9209:B1 9.72857 
12 *337:22 *9192:B1 14.3357 
13 *337:16 *9198:B1 10.6571 
14 *337:12 *337:94 3.46429 
15 *337:94 *337:96 4.5 
16 *337:96 *945:DIODE 9.3 
17 *337:96 *926:DIODE 11.0679 
18 *337:94 *337:112 7.05357 
19 *337:112 *337:114 3 
20 *337:114 *9202:B1 33.0321 
21 *337:114 *950:DIODE 9.3 
22 *337:112 *337:144 1.76786 
23 *337:144 *9181:B1 12.8179 
24 *337:144 *337:165 23.8036 
25 *337:165 *994:DIODE 16.3893 
26 *337:165 *337:176 1.64286 
27 *337:176 *9242:B1 14.7643 
28 *337:176 *337:193 10.4286 
29 *337:193 *337:197 3.73214 
30 *337:197 *9249:B1 9.3 
31 *337:197 *337:216 40.25 
32 *337:216 *337:220 9.14286 
33 *337:220 *9245:B1 16.6571 
34 *337:220 *337:235 25.3929 
35 *337:235 *337:237 2.17857 
36 *337:237 *337:243 11.8036 
37 *337:243 *337:253 11.7321 
38 *337:253 *337:257 7.125 
39 *337:257 *337:261 9.17857 
40 *337:261 *337:265 5.44643 
41 *337:265 *337:267 1.33929 
42 *337:267 *337:273 10.4643 
43 *337:273 *9224:B1 21.1214 
44 *337:273 *973:DIODE 9.3 
45 *337:267 *990:DIODE 14.7464 
46 *337:265 *337:306 7.05357 
47 *337:306 *9233:B1 9.3 
48 *337:306 *337:315 3.21429 
49 *337:315 *337:325 14.9643 
50 *337:325 *337:339 23.8482 
51 *337:339 *9230:B1 14.3804 
52 *337:339 *979:DIODE 22.0401 
53 *337:325 *9218:B1 9.3 
54 *337:315 *965:DIODE 9.3 
55 *337:261 *9239:B1 10.0321 
56 *337:257 *982:DIODE 9.3 
57 *337:253 *986:DIODE 9.3 
58 *337:243 *9236:B1 13.8 
59 *337:237 *9221:B1 11.9964 
60 *337:235 *969:DIODE 9.3 
61 *337:216 *997:DIODE 9.3 
62 *337:193 *1000:DIODE 9.3 
63 *337:8 *942:DIODE 10.6571 
*END

*D_NET *338 0.00673755
*CONN
*I *9322:B I *D sky130_fd_sc_hd__and3_1
*I *9186:A3 I *D sky130_fd_sc_hd__a32o_1
*I *9194:C I *D sky130_fd_sc_hd__and3_1
*I *9180:B I *D sky130_fd_sc_hd__and4b_1
*I *9191:C I *D sky130_fd_sc_hd__and4b_1
*I *9182:C I *D sky130_fd_sc_hd__and3b_2
*I *9183:C I *D sky130_fd_sc_hd__and3_1
*I *9179:Y O *D sky130_fd_sc_hd__nor2_1
*CAP
1 *9322:B 0.000260786
2 *9186:A3 0.000112221
3 *9194:C 0.000377183
4 *9180:B 0
5 *9191:C 0.000180191
6 *9182:C 7.00499e-05
7 *9183:C 0.000149515
8 *9179:Y 3.65713e-05
9 *338:31 0.000435004
10 *338:29 0.000470082
11 *338:27 0.000662502
12 *338:25 0.000275559
13 *338:8 0.000312853
14 *338:6 0.000297358
15 *9182:C *899:28 9.18015e-05
16 *9183:C *920:DIODE 2.8266e-06
17 *9183:C *9179:B 1.04722e-05
18 *9183:C *9193:A1 7.71303e-05
19 *9183:C *9196:A3 1.02504e-05
20 *9183:C *709:71 4.40835e-05
21 *9183:C *720:49 1.87097e-05
22 *9186:A3 *377:16 6.252e-05
23 *9186:A3 *619:127 0.000100823
24 *9191:C *9177:C 9.80173e-05
25 *9191:C *9191:B 0.000142004
26 *9191:C *9193:B1 9.91086e-05
27 *9191:C *348:210 9.91086e-05
28 *9191:C *619:51 6.96878e-05
29 *9191:C *619:62 0.000137983
30 *9191:C *698:43 1.02936e-05
31 *9194:C *9196:A3 0.000394981
32 *9194:C *616:34 5.7993e-06
33 *9194:C *709:35 1.32552e-05
34 *9322:B *342:16 0.000333846
35 *338:6 *342:16 5.71472e-05
36 *338:25 *9196:A3 5.48968e-05
37 *338:25 *377:16 3.4323e-05
38 *338:25 *720:49 0.000145618
39 *338:29 *9175:A 1.98839e-05
40 *338:29 *9180:C 3.06084e-05
41 *338:29 *9180:D 4.66943e-05
42 *338:29 *9196:A3 0.000137983
43 *338:29 *899:28 2.25554e-05
44 *338:31 *899:28 0.000265453
45 *9186:A2 *9186:A3 0.000148189
46 *334:14 *9186:A3 0.000112323
47 *334:14 *338:25 7.6644e-05
48 *335:22 *9183:C 2.05938e-05
49 *335:32 *9183:C 6.18913e-06
50 *335:86 *9194:C 3.92757e-05
51 *336:10 *9191:C 5.65955e-05
*RES
1 *9179:Y *338:6 9.83571 
2 *338:6 *338:8 4.5 
3 *338:8 *9183:C 16.8 
4 *338:8 *338:25 3.46429 
5 *338:25 *338:27 4.5 
6 *338:27 *338:29 3.82143 
7 *338:29 *338:31 2.58929 
8 *338:31 *9182:C 10.2063 
9 *338:31 *9191:C 23.4607 
10 *338:29 *9180:B 9.3 
11 *338:27 *9194:C 23.7643 
12 *338:25 *9186:A3 17.2643 
13 *338:6 *9322:B 12.7107 
*END

*D_NET *339 0.00163068
*CONN
*I *9181:C1 I *D sky130_fd_sc_hd__a221o_1
*I *9180:X O *D sky130_fd_sc_hd__and4b_1
*CAP
1 *9181:C1 0.00053115
2 *9180:X 0.00053115
3 *9181:C1 *9181:B2 5.80706e-06
4 *9181:C1 *9186:B1 2.72173e-05
5 *9181:C1 *9199:C1 7.83659e-05
6 *9181:C1 *344:314 7.95888e-05
7 *9181:C1 *344:320 0.000125243
8 *9181:C1 *377:16 0
9 *9181:C1 *619:127 5.01213e-05
10 *9181:C1 *732:44 0
11 *9181:C1 *732:48 0
12 *9181:C1 *791:108 0.000102997
13 *9181:C1 *899:28 9.90367e-05
14 *9186:A2 *9181:C1 0
*RES
1 *9180:X *9181:C1 37.475 
*END

*D_NET *340 0.00157612
*CONN
*I *9190:A1 I *D sky130_fd_sc_hd__o21a_2
*I *9181:X O *D sky130_fd_sc_hd__a221o_1
*CAP
1 *9190:A1 0.000386574
2 *9181:X 0.000386574
3 *9190:A1 *9161:A 0.000160345
4 *9190:A1 *9181:A1 2.95641e-05
5 *9190:A1 *9201:A 0.00010096
6 *9190:A1 *9201:B 4.88637e-05
7 *9190:A1 *9204:A1 5.52302e-05
8 *9190:A1 *348:322 0.000210742
9 *9190:A1 *404:71 0
10 *9190:A1 *868:14 7.41875e-05
11 *9181:A2 *9190:A1 2.89016e-05
12 *335:101 *9190:A1 9.4175e-05
*RES
1 *9181:X *9190:A1 36.7964 
*END

*D_NET *341 0.0110984
*CONN
*I *9203:B1 I *D sky130_fd_sc_hd__a221o_1
*I *9187:A2 I *D sky130_fd_sc_hd__a221o_1
*I *9275:A I *D sky130_fd_sc_hd__and2_2
*I *9350:A I *D sky130_fd_sc_hd__nand2_1
*I *9195:A2 I *D sky130_fd_sc_hd__a221o_1
*I *9199:B1 I *D sky130_fd_sc_hd__a221o_1
*I *9205:A2 I *D sky130_fd_sc_hd__a22o_1
*I *9182:X O *D sky130_fd_sc_hd__and3b_2
*CAP
1 *9203:B1 0.000428251
2 *9187:A2 4.32315e-05
3 *9275:A 0.000308369
4 *9350:A 0
5 *9195:A2 0.000202872
6 *9199:B1 0
7 *9205:A2 0.000134269
8 *9182:X 0
9 *341:61 0.000622286
10 *341:53 0.000658023
11 *341:36 0.000554585
12 *341:27 0.00071395
13 *341:21 0.00116631
14 *341:4 0.000209219
15 *9187:A2 *9166:A1 3.36823e-05
16 *9187:A2 *9201:B 5.70204e-05
17 *9187:A2 *9434:A0 8.05323e-05
18 *9195:A2 *912:DIODE 0
19 *9195:A2 *9195:A1 0
20 *9195:A2 *9196:A3 5.71472e-05
21 *9195:A2 *899:28 7.64473e-05
22 *9203:B1 *9203:B2 5.07157e-05
23 *9203:B1 *348:198 3.25078e-05
24 *9203:B1 *348:204 5.4695e-05
25 *9203:B1 *348:210 0.000546275
26 *9203:B1 *732:44 5.81459e-05
27 *9203:B1 *732:50 9.99644e-06
28 *9203:B1 *732:62 1.72894e-05
29 *9205:A2 *9182:A_N 0.000137938
30 *9205:A2 *698:58 9.90367e-05
31 *9205:A2 *899:28 0.000156521
32 *9275:A *1191:DIODE 9.66704e-05
33 *9275:A *9595:CLK 1.73088e-05
34 *9275:A *404:63 0.000115357
35 *9275:A *461:14 2.28499e-05
36 *9275:A *584:24 0.000134189
37 *9275:A *744:223 1.82657e-05
38 *9275:A *744:227 1.40306e-05
39 *9275:A *744:236 4.72493e-05
40 *341:21 *9193:B1 9.91086e-05
41 *341:21 *698:58 9.41642e-05
42 *341:21 *732:44 8.57699e-05
43 *341:21 *899:28 2.95726e-05
44 *341:27 *9186:B2 2.62775e-05
45 *341:27 *9187:C1 1.03968e-05
46 *341:27 *9192:A2 3.62376e-05
47 *341:27 *9199:B2 1.21289e-05
48 *341:27 *9199:C1 3.34875e-05
49 *341:27 *9200:A2 0
50 *341:27 *619:127 0.000266473
51 *341:27 *730:98 6.10501e-05
52 *341:36 *9187:C1 0.000136951
53 *341:36 *730:98 2.59538e-05
54 *341:53 *9195:A1 0
55 *341:53 *9201:B 0.000266479
56 *341:53 *9434:A0 0.000226513
57 *341:53 *404:71 0.000119425
58 *341:61 *9190:A2 5.33882e-05
59 *341:61 *9195:A1 0.000360116
60 *341:61 *9434:S 7.6644e-05
61 *341:61 *461:14 5.33005e-05
62 *341:61 *870:29 0.000137424
63 *341:61 *871:10 0.000261024
64 *942:DIODE *341:27 4.51611e-05
65 *9199:A2 *341:36 1.46576e-05
66 *9203:A2 *9203:B1 2.77007e-05
67 *335:86 *9195:A2 0.000220448
68 *335:101 *9195:A2 3.17148e-05
69 *335:101 *341:53 0.000488799
70 *336:18 *9205:A2 0.000202378
71 *337:8 *341:27 6.05161e-06
72 *337:12 *9203:B1 0.000169579
73 *337:94 *9203:B1 0.00026034
74 *337:112 *9203:B1 0.000184448
75 *337:165 *9275:A 0
*RES
1 *9182:X *341:4 9.3 
2 *341:4 *9205:A2 13.9786 
3 *341:4 *341:21 6.78571 
4 *341:21 *341:27 13.7679 
5 *341:27 *9199:B1 9.3 
6 *341:27 *341:36 5.85714 
7 *341:36 *9195:A2 18.2955 
8 *341:36 *341:53 13.5893 
9 *341:53 *341:61 17.5536 
10 *341:61 *9350:A 9.3 
11 *341:61 *9275:A 25.175 
12 *341:53 *9187:A2 10.6527 
13 *341:21 *9203:B1 26.2821 
*END

*D_NET *342 0.00736608
*CONN
*I *9197:B I *D sky130_fd_sc_hd__and2_1
*I *9201:B I *D sky130_fd_sc_hd__and2_1
*I *9187:B1 I *D sky130_fd_sc_hd__a221o_1
*I *9427:A I *D sky130_fd_sc_hd__nand2_2
*I *9195:B1 I *D sky130_fd_sc_hd__a221o_1
*I *9183:X O *D sky130_fd_sc_hd__and3_1
*CAP
1 *9197:B 0.000106065
2 *9201:B 0.000277257
3 *9187:B1 0
4 *9427:A 3.83869e-05
5 *9195:B1 0.000104566
6 *9183:X 0.000529972
7 *342:48 0.000477413
8 *342:31 0.000439912
9 *342:27 0.000440298
10 *342:16 0.000767402
11 *9195:B1 *9195:B2 6.26774e-06
12 *9195:B1 *9196:A3 0
13 *9195:B1 *899:28 1.96859e-05
14 *9197:B *9200:A1 4.43157e-05
15 *9197:B *9200:B1 9.90431e-05
16 *9197:B *719:8 0.000144773
17 *9197:B *899:28 7.06071e-05
18 *9201:B *9166:A1 4.78624e-05
19 *9201:B *9181:A1 0.00010096
20 *9201:B *9187:B2 1.85392e-05
21 *9201:B *9190:A2 1.98839e-05
22 *9201:B *9201:A 0.000273269
23 *9201:B *9434:A0 6.59012e-07
24 *9201:B *9434:S 0.0001018
25 *9201:B *9435:A 2.89016e-05
26 *9427:A *9168:A1 0
27 *9427:A *9168:D1 1.04232e-05
28 *9427:A *9186:A1 5.33005e-05
29 *9427:A *873:28 3.17016e-05
30 *342:16 *9193:A1 0.000181796
31 *342:16 *9195:C1 7.6644e-05
32 *342:16 *404:79 0.000261227
33 *342:16 *443:6 9.90367e-05
34 *342:16 *443:23 0.000171086
35 *342:16 *601:66 0
36 *342:16 *720:30 0.000163408
37 *342:27 *9195:B2 6.05161e-06
38 *342:27 *9200:A1 3.30237e-05
39 *342:27 *899:28 1.57523e-05
40 *342:31 *9187:C1 1.81805e-05
41 *342:31 *9195:B2 1.18451e-05
42 *342:31 *9195:C1 2.19778e-05
43 *342:31 *9200:A2 0.00010326
44 *342:31 *348:343 1.02504e-05
45 *342:31 *518:31 0.000193125
46 *342:31 *601:66 0.000403323
47 *342:48 *9166:A1 5.33005e-05
48 *342:48 *348:343 0.000326716
49 *342:48 *518:31 4.56437e-05
50 *342:48 *873:20 7.87509e-05
51 *342:48 *873:28 7.50551e-05
52 *9187:A2 *9201:B 5.70204e-05
53 *9190:A1 *9201:B 4.88637e-05
54 *9322:B *342:16 0.000333846
55 *338:6 *342:16 5.71472e-05
56 *341:53 *9201:B 0.000266479
*RES
1 *9183:X *342:16 29.8357 
2 *342:16 *9195:B1 10.675 
3 *342:16 *342:27 1.76786 
4 *342:27 *342:31 10.3929 
5 *342:31 *9427:A 14.7643 
6 *342:31 *342:48 9.41071 
7 *342:48 *9187:B1 9.3 
8 *342:48 *9201:B 17.2821 
9 *342:27 *9197:B 12.7464 
*END

*D_NET *343 0.00143174
*CONN
*I *9185:A I *D sky130_fd_sc_hd__buf_4
*I *9184:X O *D sky130_fd_sc_hd__and4bb_1
*CAP
1 *9185:A 0.000326815
2 *9184:X 0.000326815
3 *9185:A *930:DIODE 5.83304e-05
4 *9185:A *9215:A 0.000133898
5 *9185:A *9215:B 1.38384e-05
6 *9185:A *698:87 6.98302e-05
7 *9185:A *698:89 0.000187026
8 *9185:A *732:44 0.000315187
*RES
1 *9184:X *9185:A 36.0643 
*END

*D_NET *344 0.0459428
*CONN
*I *959:DIODE I *D sky130_fd_sc_hd__diode_2
*I *935:DIODE I *D sky130_fd_sc_hd__diode_2
*I *9198:A2 I *D sky130_fd_sc_hd__a22o_1
*I *941:DIODE I *D sky130_fd_sc_hd__diode_2
*I *9186:B2 I *D sky130_fd_sc_hd__a32o_1
*I *9192:A2 I *D sky130_fd_sc_hd__a22o_1
*I *944:DIODE I *D sky130_fd_sc_hd__diode_2
*I *999:DIODE I *D sky130_fd_sc_hd__diode_2
*I *996:DIODE I *D sky130_fd_sc_hd__diode_2
*I *9245:A2 I *D sky130_fd_sc_hd__a22o_1
*I *9236:A2 I *D sky130_fd_sc_hd__a22o_1
*I *985:DIODE I *D sky130_fd_sc_hd__diode_2
*I *9239:A2 I *D sky130_fd_sc_hd__a22o_1
*I *981:DIODE I *D sky130_fd_sc_hd__diode_2
*I *9233:A2 I *D sky130_fd_sc_hd__a22o_1
*I *989:DIODE I *D sky130_fd_sc_hd__diode_2
*I *962:DIODE I *D sky130_fd_sc_hd__diode_2
*I *9217:A I *D sky130_fd_sc_hd__buf_4
*I *955:DIODE I *D sky130_fd_sc_hd__diode_2
*I *9209:A2 I *D sky130_fd_sc_hd__a22o_1
*I *9249:A2 I *D sky130_fd_sc_hd__a22o_1
*I *9242:A2 I *D sky130_fd_sc_hd__a22o_1
*I *993:DIODE I *D sky130_fd_sc_hd__diode_2
*I *949:DIODE I *D sky130_fd_sc_hd__diode_2
*I *9202:A2 I *D sky130_fd_sc_hd__a22o_1
*I *9213:A2 I *D sky130_fd_sc_hd__a22o_1
*I *9206:A2 I *D sky130_fd_sc_hd__a221o_1
*I *953:DIODE I *D sky130_fd_sc_hd__diode_2
*I *9185:X O *D sky130_fd_sc_hd__buf_4
*CAP
1 *959:DIODE 0
2 *935:DIODE 0.00028205
3 *9198:A2 0
4 *941:DIODE 0
5 *9186:B2 4.83964e-05
6 *9192:A2 0.000212931
7 *944:DIODE 0
8 *999:DIODE 0
9 *996:DIODE 0
10 *9245:A2 0
11 *9236:A2 0.00022339
12 *985:DIODE 0
13 *9239:A2 1.60352e-05
14 *981:DIODE 0
15 *9233:A2 0.000143536
16 *989:DIODE 6.47689e-05
17 *962:DIODE 0
18 *9217:A 0.000429959
19 *955:DIODE 0
20 *9209:A2 8.58298e-05
21 *9249:A2 0
22 *9242:A2 0.000160278
23 *993:DIODE 0.000286536
24 *949:DIODE 0
25 *9202:A2 0
26 *9213:A2 0
27 *9206:A2 0.000271186
28 *953:DIODE 0
29 *9185:X 0.000366859
30 *344:322 0.00027462
31 *344:320 0.000101122
32 *344:314 0.000129045
33 *344:310 0.000597817
34 *344:303 0.000525403
35 *344:241 0.000203768
36 *344:239 0.000290001
37 *344:220 0.000814394
38 *344:214 0.000601996
39 *344:208 0.00131229
40 *344:198 0.00147581
41 *344:172 0.00208703
42 *344:152 0.00063296
43 *344:146 0.00306489
44 *344:144 0.00136895
45 *344:138 0.00115696
46 *344:126 0.0012739
47 *344:113 0.000328772
48 *344:100 0.000389734
49 *344:89 0.000963685
50 *344:78 0.000926514
51 *344:65 0.000648798
52 *344:61 0.000830544
53 *344:53 0.000497399
54 *344:36 0.000367386
55 *344:19 0.000545936
56 *344:10 0.000518505
57 *935:DIODE *946:DIODE 5.52302e-05
58 *935:DIODE *9186:A1 4.37999e-05
59 *935:DIODE *9198:B2 0.000169359
60 *989:DIODE *9233:A1 0
61 *989:DIODE *537:28 0.000128154
62 *9186:B2 *9199:C1 7.06728e-05
63 *9186:B2 *619:127 6.05161e-06
64 *9192:A2 *9192:A1 5.7661e-06
65 *9192:A2 *9193:B1 3.68279e-05
66 *9192:A2 *9198:A1 0.000563675
67 *9206:A2 *9206:B2 2.72897e-05
68 *9206:A2 *9206:C1 5.67486e-05
69 *9206:A2 *698:27 1.72894e-05
70 *9209:A2 *9209:B2 0.000198352
71 *9209:A2 *794:22 7.32955e-05
72 *9209:A2 *857:35 0.000286093
73 *9217:A *9550:A0 4.1331e-06
74 *9217:A *9633:CLK 0
75 *9217:A *347:78 0.000225609
76 *9217:A *369:10 6.87574e-05
77 *9217:A *369:248 0.000163832
78 *9217:A *592:14 0.000271345
79 *9217:A *738:132 0
80 *9233:A2 *9218:B2 3.69697e-05
81 *9233:A2 *9224:B2 0
82 *9233:A2 *9233:A1 3.57366e-05
83 *9233:A2 *348:45 3.69047e-06
84 *9236:A2 *9236:A1 5.33005e-05
85 *9236:A2 *9482:B1 0
86 *9236:A2 *9482:B2 0
87 *9236:A2 *9501:A1 0
88 *9236:A2 *9514:B1 5.7661e-06
89 *9236:A2 *538:8 0.000310307
90 *9236:A2 *538:59 6.91157e-05
91 *9242:A2 *9242:A1 0.000134471
92 *344:10 *940:DIODE 0.000184522
93 *344:10 *9206:B2 0
94 *344:10 *348:230 0.000142944
95 *344:19 *9206:A1 0
96 *344:19 *9206:B2 0
97 *344:19 *9206:C1 3.4846e-06
98 *344:19 *862:27 0
99 *344:36 *9205:B2 3.4846e-06
100 *344:36 *9206:A1 0
101 *344:36 *9206:C1 2.74273e-05
102 *344:36 *795:60 0
103 *344:36 *862:27 0
104 *344:53 *9192:A1 9.41888e-05
105 *344:53 *9198:A1 0.000267731
106 *344:53 *9205:B2 1.34698e-05
107 *344:53 *793:26 0.000173083
108 *344:53 *795:60 0.000112623
109 *344:61 *928:DIODE 5.30637e-06
110 *344:61 *790:24 0.000216194
111 *344:61 *793:26 0
112 *344:65 *9203:B2 0
113 *344:65 *9203:C1 5.80706e-06
114 *344:65 *348:210 0
115 *344:65 *369:280 0
116 *344:65 *732:62 0
117 *344:65 *790:24 0.000253398
118 *344:78 *9203:C1 3.07555e-05
119 *344:78 *347:103 0.000271904
120 *344:78 *790:24 0.000111314
121 *344:89 *9181:B2 0.00063816
122 *344:89 *347:103 0.000513831
123 *344:89 *348:171 7.83366e-05
124 *344:89 *348:173 2.61337e-05
125 *344:89 *348:179 0.000231358
126 *344:100 *9181:B2 0.000250201
127 *344:100 *348:171 0.000131247
128 *344:113 *9181:B2 0.000407978
129 *344:113 *348:171 0.000217812
130 *344:126 *9181:B2 0.000220086
131 *344:126 *348:171 0.000210538
132 *344:126 *757:34 4.47653e-05
133 *344:138 *9249:B2 4.72917e-05
134 *344:138 *9827:A 0.000311183
135 *344:138 *757:34 0.000469935
136 *344:144 *9249:B2 0.000140933
137 *344:144 *9458:A 4.66511e-05
138 *344:144 *794:18 1.65558e-05
139 *344:146 *9458:A 0.000268514
140 *344:146 *743:96 0
141 *344:146 *794:18 0.000526131
142 *344:146 *820:65 0
143 *344:152 *9186:B1 0
144 *344:152 *743:96 0
145 *344:152 *794:18 0.000171299
146 *344:152 *794:22 0.000102197
147 *344:152 *857:35 9.77274e-05
148 *344:172 *9122:A 7.00351e-05
149 *344:172 *347:78 0.00120976
150 *344:172 *347:103 0.00051207
151 *344:198 *9249:B2 0.000295925
152 *344:198 *388:16 1.97695e-05
153 *344:198 *390:16 0.000241045
154 *344:208 *9114:A 0.000431976
155 *344:208 *9236:A1 0.000362604
156 *344:208 *9465:A 1.11775e-05
157 *344:208 *9559:A 5.41794e-05
158 *344:208 *9760:A 0.000167149
159 *344:208 *388:16 0.000354105
160 *344:208 *390:16 0.000139907
161 *344:208 *538:8 1.02504e-05
162 *344:208 *539:50 3.52632e-05
163 *344:208 *539:60 5.62914e-05
164 *344:208 *785:33 0
165 *344:208 *829:10 0.000315165
166 *344:214 *9480:B2 2.05612e-05
167 *344:214 *9760:A 6.05161e-06
168 *344:214 *796:42 0.00010096
169 *344:220 *1139:DIODE 2.89016e-05
170 *344:220 *9465:B 0
171 *344:220 *9480:B2 6.05161e-06
172 *344:220 *537:14 0.000172309
173 *344:220 *537:16 4.27935e-05
174 *344:220 *537:20 0.00136475
175 *344:220 *584:175 0.000318101
176 *344:220 *584:177 0.000186669
177 *344:220 *796:42 2.91219e-05
178 *344:239 *9218:B2 0.000179465
179 *344:239 *9233:A1 0
180 *344:239 *9504:A3 0.000139907
181 *344:239 *537:28 3.34366e-05
182 *344:239 *537:336 0.000137931
183 *344:239 *796:42 6.92813e-05
184 *344:239 *863:54 0
185 *344:241 *9218:B2 5.52238e-05
186 *344:241 *9240:B 5.52302e-05
187 *344:303 *928:DIODE 0.0001096
188 *344:310 *9198:B2 0.000184745
189 *344:314 *732:44 0
190 *344:320 *9198:A1 0.000102056
191 *344:322 *9199:C1 2.53134e-05
192 *942:DIODE *9192:A2 0.000139907
193 *9079:A *344:138 4.35306e-05
194 *9113:A *344:138 0
195 *9113:B *344:138 4.87953e-05
196 *9118:C1 *344:152 8.00806e-05
197 *9123:B *344:172 9.71197e-05
198 *9125:B *344:152 0.000173863
199 *9126:B *344:152 9.01334e-05
200 *9181:C1 *344:314 7.95888e-05
201 *9181:C1 *344:320 0.000125243
202 *9198:B1 *344:310 8.25843e-06
203 *9202:B1 *344:65 2.56601e-05
204 *9206:B1 *9206:A2 5.62942e-05
205 *9210:A2 *9206:A2 2.3093e-05
206 *9239:B1 *9239:A2 5.7661e-06
207 *9239:B1 *344:239 6.10501e-05
208 *9242:B1 *9242:A2 0
209 *231:16 *344:138 6.4443e-05
210 *276:40 *344:138 0.000862853
211 *276:40 *344:144 7.51426e-05
212 *276:40 *344:208 0.00010096
213 *278:14 *344:152 7.06861e-05
214 *279:12 *344:146 0
215 *279:12 *344:152 0
216 *286:10 *344:152 3.417e-05
217 *322:28 *993:DIODE 0.000391
218 *337:8 *9186:B2 0
219 *337:8 *9192:A2 6.26177e-05
220 *337:22 *344:61 1.00073e-05
221 *337:22 *344:303 1.15281e-05
222 *337:22 *344:310 2.65133e-05
223 *337:32 *9209:A2 0.000153959
224 *337:243 *9236:A2 6.0038e-05
225 *337:253 *9236:A2 0.00021559
226 *337:261 *344:239 0.000238835
227 *337:265 *344:239 2.42516e-05
228 *337:265 *344:241 3.69047e-06
229 *337:306 *9233:A2 6.8646e-06
230 *337:315 *9233:A2 2.55315e-05
231 *341:27 *9186:B2 2.62775e-05
232 *341:27 *9192:A2 3.62376e-05
*RES
1 *9185:X *344:10 20.8893 
2 *344:10 *953:DIODE 13.8 
3 *344:10 *344:19 2.25 
4 *344:19 *9206:A2 18.108 
5 *344:19 *344:36 1.94643 
6 *344:36 *9213:A2 13.8 
7 *344:36 *344:53 11.3214 
8 *344:53 *344:61 13.2143 
9 *344:61 *344:65 11.3036 
10 *344:65 *9202:A2 13.8 
11 *344:65 *344:78 10.25 
12 *344:78 *949:DIODE 9.3 
13 *344:78 *344:89 17.875 
14 *344:89 *993:DIODE 17.6214 
15 *344:89 *344:100 3.16071 
16 *344:100 *9242:A2 16.8179 
17 *344:100 *344:113 5.28571 
18 *344:113 *9249:A2 13.8 
19 *344:113 *344:126 9.125 
20 *344:126 *344:138 24.9643 
21 *344:138 *344:144 6.58929 
22 *344:144 *344:146 19.25 
23 *344:146 *344:152 17.9286 
24 *344:152 *9209:A2 13.9429 
25 *344:152 *955:DIODE 9.3 
26 *344:146 *344:172 31.4643 
27 *344:172 *9217:A 26.5321 
28 *344:172 *962:DIODE 9.3 
29 *344:144 *344:198 11.1071 
30 *344:198 *344:208 28.3571 
31 *344:208 *344:214 5.98214 
32 *344:214 *344:220 20.6607 
33 *344:220 *989:DIODE 15.4429 
34 *344:220 *344:239 11.3214 
35 *344:239 *344:241 1.35714 
36 *344:241 *9233:A2 20.9071 
37 *344:241 *981:DIODE 9.3 
38 *344:239 *9239:A2 9.72857 
39 *344:214 *985:DIODE 9.3 
40 *344:208 *9236:A2 19.7464 
41 *344:198 *9245:A2 9.3 
42 *344:138 *996:DIODE 9.3 
43 *344:126 *999:DIODE 9.3 
44 *344:61 *344:303 3.41071 
45 *344:303 *944:DIODE 9.3 
46 *344:303 *344:310 3.41071 
47 *344:310 *344:314 5.53571 
48 *344:314 *344:320 6.67857 
49 *344:320 *344:322 0.428571 
50 *344:322 *9192:A2 16.0143 
51 *344:322 *9186:B2 10.8 
52 *344:320 *941:DIODE 9.3 
53 *344:314 *9198:A2 13.8 
54 *344:310 *935:DIODE 13.1214 
55 *344:53 *959:DIODE 9.3 
*END

*D_NET *345 0.00318387
*CONN
*I *9187:C1 I *D sky130_fd_sc_hd__a221o_1
*I *9186:X O *D sky130_fd_sc_hd__a32o_1
*CAP
1 *9187:C1 0.000873502
2 *9186:X 0.000873502
3 *9187:C1 *1062:DIODE 0.000262504
4 *9187:C1 *9199:B2 1.403e-05
5 *9187:C1 *9199:C1 5.52302e-05
6 *9187:C1 *348:343 0.000498798
7 *9187:C1 *601:66 0.000101545
8 *9187:C1 *616:20 0
9 *9187:C1 *730:98 0.000104298
10 *9187:C1 *866:38 0.000165032
11 *9168:A2 *9187:C1 6.9904e-05
12 *341:27 *9187:C1 1.03968e-05
13 *341:36 *9187:C1 0.000136951
14 *342:31 *9187:C1 1.81805e-05
*RES
1 *9186:X *9187:C1 42.4393 
*END

*D_NET *346 0.00046059
*CONN
*I *9190:A2 I *D sky130_fd_sc_hd__o21a_2
*I *9187:X O *D sky130_fd_sc_hd__a221o_1
*CAP
1 *9190:A2 0.000115379
2 *9187:X 0.000115379
3 *9190:A2 *9434:S 5.33005e-05
4 *9190:A2 *870:29 0.00010326
5 *9201:B *9190:A2 1.98839e-05
6 *341:61 *9190:A2 5.33882e-05
*RES
1 *9187:X *9190:A2 29.8857 
*END

*D_NET *347 0.0634082
*CONN
*I *936:DIODE I *D sky130_fd_sc_hd__diode_2
*I *1020:DIODE I *D sky130_fd_sc_hd__diode_2
*I *9189:A I *D sky130_fd_sc_hd__buf_4
*I *9266:B I *D sky130_fd_sc_hd__and3_1
*I *9254:B I *D sky130_fd_sc_hd__and3_1
*I *1005:DIODE I *D sky130_fd_sc_hd__diode_2
*I *9270:B I *D sky130_fd_sc_hd__and3_1
*I *1026:DIODE I *D sky130_fd_sc_hd__diode_2
*I *998:DIODE I *D sky130_fd_sc_hd__diode_2
*I *1028:DIODE I *D sky130_fd_sc_hd__diode_2
*I *9252:B I *D sky130_fd_sc_hd__and3_1
*I *1002:DIODE I *D sky130_fd_sc_hd__diode_2
*I *1012:DIODE I *D sky130_fd_sc_hd__diode_2
*I *9260:B I *D sky130_fd_sc_hd__and3_1
*I *9272:B I *D sky130_fd_sc_hd__and3_1
*I *1014:DIODE I *D sky130_fd_sc_hd__diode_2
*I *9262:B I *D sky130_fd_sc_hd__and3_1
*I *1010:DIODE I *D sky130_fd_sc_hd__diode_2
*I *9258:B I *D sky130_fd_sc_hd__and3_1
*I *9268:B I *D sky130_fd_sc_hd__and3_1
*I *1023:DIODE I *D sky130_fd_sc_hd__diode_2
*I *9250:A I *D sky130_fd_sc_hd__and2_1
*I *1001:DIODE I *D sky130_fd_sc_hd__diode_2
*I *9246:A I *D sky130_fd_sc_hd__and2_1
*I *9256:B I *D sky130_fd_sc_hd__and3_1
*I *1008:DIODE I *D sky130_fd_sc_hd__diode_2
*I *9264:B I *D sky130_fd_sc_hd__and3_1
*I *1017:DIODE I *D sky130_fd_sc_hd__diode_2
*I *9188:Y O *D sky130_fd_sc_hd__nand2_8
*CAP
1 *936:DIODE 8.56257e-05
2 *1020:DIODE 0.000128177
3 *9189:A 8.24914e-05
4 *9266:B 7.79217e-05
5 *9254:B 0
6 *1005:DIODE 0.00023897
7 *9270:B 7.70325e-05
8 *1026:DIODE 0.000176991
9 *998:DIODE 0
10 *1028:DIODE 6.74726e-05
11 *9252:B 0.000160743
12 *1002:DIODE 0.000674807
13 *1012:DIODE 0
14 *9260:B 0.00020906
15 *9272:B 0.000117353
16 *1014:DIODE 0.000125543
17 *9262:B 4.91556e-05
18 *1010:DIODE 6.3976e-05
19 *9258:B 0
20 *9268:B 0.000152207
21 *1023:DIODE 0.000389679
22 *9250:A 3.21268e-05
23 *1001:DIODE 0
24 *9246:A 0.000210559
25 *9256:B 0
26 *1008:DIODE 0
27 *9264:B 0.000197117
28 *1017:DIODE 8.23607e-05
29 *9188:Y 0
30 *347:312 0.000160413
31 *347:296 0.000468113
32 *347:234 0.00191012
33 *347:220 0.00020906
34 *347:218 0.00124079
35 *347:214 0.00033035
36 *347:201 0.000432752
37 *347:183 0.000174698
38 *347:162 0.000250871
39 *347:160 0.000162639
40 *347:147 0.000604899
41 *347:145 0.000508458
42 *347:143 0.00229039
43 *347:116 0.00183293
44 *347:109 0.000428527
45 *347:103 0.00374243
46 *347:101 0.0035166
47 *347:80 0.000390868
48 *347:78 0.00173055
49 *347:38 0.000477576
50 *347:30 0.000327833
51 *347:28 0.00260685
52 *347:24 0.000951812
53 *347:22 0.000698224
54 *347:16 0.000892167
55 *347:14 0.000178487
56 *347:12 0.000331629
57 *347:10 0.00146721
58 *347:6 0.00537229
59 *347:4 0.00408576
60 *1002:DIODE *9252:C 9.60939e-05
61 *1002:DIODE *9279:A 2.42516e-05
62 *1002:DIODE *9384:A1 0
63 *1002:DIODE *9384:A2 6.72808e-05
64 *1002:DIODE *9386:C_N 1.69961e-05
65 *1002:DIODE *9387:A 2.13481e-06
66 *1002:DIODE *9393:B 0.00015234
67 *1002:DIODE *9610:CLK 5.66647e-05
68 *1002:DIODE *9611:CLK 3.32631e-05
69 *1002:DIODE *487:14 0.000136951
70 *1002:DIODE *590:104 6.82922e-05
71 *1002:DIODE *886:17 4.70078e-05
72 *1005:DIODE *381:12 0.000276186
73 *1010:DIODE *401:8 8.66063e-05
74 *1014:DIODE *893:12 6.79057e-05
75 *1023:DIODE *1011:DIODE 0.000144773
76 *1023:DIODE *369:334 7.83587e-05
77 *1023:DIODE *396:14 0.00013359
78 *1026:DIODE *9443:A 3.57366e-05
79 *1028:DIODE *403:8 2.65105e-05
80 *9189:A *9266:A 5.52302e-05
81 *9189:A *9266:C 6.47668e-05
82 *9189:A *9715:RESET_B 0
83 *9246:A *9227:B2 0
84 *9246:A *369:261 1.02504e-05
85 *9246:A *369:280 0.000108151
86 *9246:A *376:16 0.000232399
87 *9246:A *388:16 0.00010096
88 *9246:A *739:190 0
89 *9246:A *756:10 0
90 *9250:A *404:42 4.01768e-05
91 *9252:B *9390:C 0.00019384
92 *9252:B *9392:A2 0.000117261
93 *9252:B *808:33 0.000187026
94 *9260:B *9260:A 2.51343e-06
95 *9260:B *9260:C 3.06878e-06
96 *9260:B *397:10 5.37963e-05
97 *9262:B *893:12 1.58163e-05
98 *9264:B *9257:A 7.97054e-05
99 *9264:B *9264:A 0
100 *9264:B *9264:C 6.33946e-06
101 *9266:B *9715:RESET_B 0
102 *9268:B *401:8 0.000144773
103 *9268:B *729:56 4.43256e-05
104 *9270:B *369:60 9.41642e-05
105 *9272:B *1029:DIODE 1.21258e-05
106 *9272:B *9272:C 2.45152e-05
107 *9272:B *403:8 5.33005e-05
108 *347:6 *9188:A 5.33005e-05
109 *347:10 *371:8 0
110 *347:10 *400:8 0.00283567
111 *347:12 *371:8 0
112 *347:12 *400:8 0.000193585
113 *347:14 *980:DIODE 0
114 *347:14 *1021:DIODE 3.38136e-05
115 *347:14 *9219:B 0
116 *347:14 *369:158 2.10446e-05
117 *347:14 *400:8 0.000267266
118 *347:16 *369:158 1.00375e-05
119 *347:16 *400:8 6.0038e-05
120 *347:16 *812:12 1.87097e-05
121 *347:22 *9226:A 8.45386e-05
122 *347:22 *9254:A 6.42242e-05
123 *347:22 *9443:A 9.25014e-06
124 *347:22 *9674:RESET_B 4.66511e-05
125 *347:22 *369:56 6.8646e-06
126 *347:22 *369:129 6.34847e-05
127 *347:22 *741:72 6.74911e-05
128 *347:22 *741:86 0.000623438
129 *347:22 *812:12 0.000490803
130 *347:24 *9443:A 7.83587e-05
131 *347:28 *9443:A 1.02504e-05
132 *347:28 *9713:CLK 0
133 *347:28 *9714:SET_B 0.000344925
134 *347:28 *369:14 3.5707e-05
135 *347:28 *369:56 0.00040818
136 *347:28 *812:12 0.000237546
137 *347:30 *369:18 1.46768e-06
138 *347:38 *9257:A 0.000110234
139 *347:38 *369:14 0
140 *347:38 *755:14 0
141 *347:78 *9122:A 0.000176388
142 *347:78 *9444:A0 9.71197e-05
143 *347:78 *9445:A 0.000224596
144 *347:78 *9550:A1 0.000353073
145 *347:78 *9550:S 6.27058e-05
146 *347:78 *369:18 8.0786e-06
147 *347:78 *592:8 9.25014e-06
148 *347:78 *611:34 0.00167022
149 *347:78 *721:14 0.000111763
150 *347:78 *818:43 7.75022e-05
151 *347:78 *826:22 2.05821e-05
152 *347:101 *9122:A 3.79341e-05
153 *347:101 *739:190 0
154 *347:101 *756:10 0
155 *347:103 *952:DIODE 7.48301e-06
156 *347:103 *1053:DIODE 0.000137983
157 *347:103 *9122:A 0.000144773
158 *347:103 *9163:A 0.000137437
159 *347:103 *9204:A1 0.0001863
160 *347:103 *9426:B1 0.000225609
161 *347:103 *9429:A 7.43578e-06
162 *347:103 *348:179 2.59355e-05
163 *347:103 *348:183 7.77652e-05
164 *347:103 *584:38 2.59355e-05
165 *347:103 *584:53 7.48091e-05
166 *347:103 *600:8 0.000350124
167 *347:103 *792:49 0.000657842
168 *347:109 *9251:A 0
169 *347:109 *9426:B1 0
170 *347:109 *731:64 0
171 *347:109 *742:22 0.000104974
172 *347:109 *742:46 0
173 *347:109 *742:61 0
174 *347:109 *757:56 0
175 *347:109 *895:12 9.03649e-05
176 *347:109 *895:120 5.58875e-06
177 *347:143 *1039:DIODE 6.05161e-06
178 *347:143 *1220:DIODE 5.33433e-05
179 *347:143 *9307:A 5.52302e-05
180 *347:143 *404:42 0.000674447
181 *347:143 *446:12 0
182 *347:143 *584:98 0
183 *347:145 *369:345 0.000191163
184 *347:145 *369:354 0.000340931
185 *347:147 *369:334 0.000281743
186 *347:147 *369:345 0.000103974
187 *347:162 *401:8 0.000126566
188 *347:201 *369:354 0.000347415
189 *347:214 *1029:DIODE 3.67257e-05
190 *347:214 *403:8 0.000174232
191 *347:218 *369:372 0
192 *347:218 *369:389 0
193 *347:234 *9278:A 0
194 *347:234 *9278:D 0.000180427
195 *347:234 *9279:B 0
196 *347:234 *9280:C 0
197 *347:234 *9371:A 0.000341788
198 *347:234 *9379:A 0
199 *347:234 *9386:A 0
200 *347:234 *9390:C 9.91086e-05
201 *347:234 *369:389 0
202 *347:234 *369:402 0
203 *347:234 *407:157 0.000104382
204 *347:234 *407:163 5.41797e-06
205 *347:234 *408:10 0
206 *347:234 *470:29 0
207 *347:234 *808:33 0.000267099
208 *347:296 *381:8 5.33334e-05
209 *347:296 *381:12 7.1274e-05
210 *9122:B *347:101 0
211 *9217:A *347:78 0.000225609
212 *9230:B1 *347:22 4.32258e-05
213 *9444:S *347:78 0.000120519
214 *9598:D *347:143 0.00013949
215 *9607:D *347:234 0.000101441
216 *9609:D *347:234 6.07328e-05
217 *9629:D *347:22 0.000187019
218 *9629:D *347:24 6.81083e-05
219 *9629:D *347:28 1.02504e-05
220 *9697:D *347:28 0.000150847
221 *238:14 *9246:A 0
222 *322:26 *347:109 0.000320038
223 *322:45 *347:101 0
224 *322:112 *347:22 0
225 *322:127 *347:22 0
226 *325:8 *347:103 0.000186662
227 *337:339 *9189:A 4.87953e-05
228 *337:339 *347:16 5.01213e-05
229 *337:339 *347:22 1.65337e-05
230 *344:78 *347:103 0.000271904
231 *344:89 *347:103 0.000513831
232 *344:172 *347:78 0.00120976
233 *344:172 *347:103 0.00051207
*RES
1 *9188:Y *347:4 9.3 
2 *347:4 *347:6 67.8929 
3 *347:6 *347:10 40.1429 
4 *347:10 *347:12 2.55357 
5 *347:12 *347:14 3.46429 
6 *347:14 *347:16 1.64286 
7 *347:16 *347:22 19.3036 
8 *347:22 *347:24 1.03571 
9 *347:24 *347:28 24.0536 
10 *347:28 *347:30 1.35714 
11 *347:30 *347:38 12.5 
12 *347:38 *1017:DIODE 10.2464 
13 *347:38 *9264:B 13.2464 
14 *347:30 *1008:DIODE 9.3 
15 *347:28 *9256:B 9.3 
16 *347:28 *347:78 44.8036 
17 *347:78 *347:80 4.5 
18 *347:80 *9246:A 18.7643 
19 *347:80 *347:101 6.80357 
20 *347:101 *347:103 61.7321 
21 *347:103 *347:109 17.625 
22 *347:109 *1001:DIODE 9.3 
23 *347:109 *347:116 0.428571 
24 *347:116 *9250:A 10.675 
25 *347:116 *347:143 42.9643 
26 *347:143 *347:145 6.80357 
27 *347:145 *347:147 4.98214 
28 *347:147 *1023:DIODE 21.3 
29 *347:147 *347:160 4.5 
30 *347:160 *347:162 1.35714 
31 *347:162 *9268:B 11.4786 
32 *347:162 *9258:B 9.3 
33 *347:160 *1010:DIODE 10.2464 
34 *347:145 *347:183 4.5 
35 *347:183 *9262:B 9.83571 
36 *347:183 *1014:DIODE 11.0679 
37 *347:143 *347:201 9.17857 
38 *347:201 *9272:B 11.3893 
39 *347:201 *347:214 2.80357 
40 *347:214 *347:218 7.05357 
41 *347:218 *347:220 4.5 
42 *347:220 *9260:B 11.8893 
43 *347:220 *1012:DIODE 9.3 
44 *347:218 *347:234 22.8929 
45 *347:234 *1002:DIODE 33.6571 
46 *347:234 *9252:B 17.5321 
47 *347:214 *1028:DIODE 10.2464 
48 *347:78 *998:DIODE 9.3 
49 *347:24 *1026:DIODE 16.4071 
50 *347:22 *9270:B 14.7464 
51 *347:16 *347:296 7.5 
52 *347:296 *1005:DIODE 14.3714 
53 *347:296 *9254:B 9.3 
54 *347:14 *347:312 4.5 
55 *347:312 *9266:B 10.5679 
56 *347:312 *9189:A 11.4964 
57 *347:12 *1020:DIODE 15.1571 
58 *347:10 *936:DIODE 14.7464 
*END

*D_NET *348 0.045531
*CONN
*I *980:DIODE I *D sky130_fd_sc_hd__diode_2
*I *9219:A I *D sky130_fd_sc_hd__and2_1
*I *9231:A I *D sky130_fd_sc_hd__and2_1
*I *9243:A I *D sky130_fd_sc_hd__and2_1
*I *995:DIODE I *D sky130_fd_sc_hd__diode_2
*I *9204:B1 I *D sky130_fd_sc_hd__o21a_2
*I *937:DIODE I *D sky130_fd_sc_hd__diode_2
*I *948:DIODE I *D sky130_fd_sc_hd__diode_2
*I *9200:B1 I *D sky130_fd_sc_hd__o21a_1
*I *9190:B1 I *D sky130_fd_sc_hd__o21a_2
*I *9228:A I *D sky130_fd_sc_hd__and2_1
*I *977:DIODE I *D sky130_fd_sc_hd__diode_2
*I *9196:B1 I *D sky130_fd_sc_hd__o31a_2
*I *9215:A I *D sky130_fd_sc_hd__and2_1
*I *961:DIODE I *D sky130_fd_sc_hd__diode_2
*I *943:DIODE I *D sky130_fd_sc_hd__diode_2
*I *9207:A I *D sky130_fd_sc_hd__and2_1
*I *954:DIODE I *D sky130_fd_sc_hd__diode_2
*I *9211:A I *D sky130_fd_sc_hd__and2_1
*I *958:DIODE I *D sky130_fd_sc_hd__diode_2
*I *952:DIODE I *D sky130_fd_sc_hd__diode_2
*I *970:DIODE I *D sky130_fd_sc_hd__diode_2
*I *9222:A I *D sky130_fd_sc_hd__and2_1
*I *9237:A I *D sky130_fd_sc_hd__and2_1
*I *987:DIODE I *D sky130_fd_sc_hd__diode_2
*I *9234:A I *D sky130_fd_sc_hd__and2_1
*I *9240:A I *D sky130_fd_sc_hd__and2_2
*I *974:DIODE I *D sky130_fd_sc_hd__diode_2
*I *983:DIODE I *D sky130_fd_sc_hd__diode_2
*I *9225:A I *D sky130_fd_sc_hd__and2_1
*I *991:DIODE I *D sky130_fd_sc_hd__diode_2
*I *966:DIODE I *D sky130_fd_sc_hd__diode_2
*I *9189:X O *D sky130_fd_sc_hd__buf_4
*CAP
1 *980:DIODE 6.50091e-05
2 *9219:A 0
3 *9231:A 0
4 *9243:A 4.77561e-05
5 *995:DIODE 7.03212e-05
6 *9204:B1 0
7 *937:DIODE 0.000158607
8 *948:DIODE 6.46854e-05
9 *9200:B1 0.000129111
10 *9190:B1 1.99857e-05
11 *9228:A 0
12 *977:DIODE 0
13 *9196:B1 0
14 *9215:A 8.57261e-05
15 *961:DIODE 0
16 *943:DIODE 0
17 *9207:A 0
18 *954:DIODE 0
19 *9211:A 0
20 *958:DIODE 7.59848e-05
21 *952:DIODE 7.04466e-05
22 *970:DIODE 0
23 *9222:A 2.23854e-05
24 *9237:A 0.0002283
25 *987:DIODE 0
26 *9234:A 0
27 *9240:A 0
28 *974:DIODE 0
29 *983:DIODE 8.95912e-05
30 *9225:A 0.000130163
31 *991:DIODE 0.000104592
32 *966:DIODE 0
33 *9189:X 0.000161768
34 *348:343 0.000660411
35 *348:331 0.000673992
36 *348:322 0.00109069
37 *348:244 0.000998723
38 *348:240 0.00118517
39 *348:230 0.000797012
40 *348:220 0.000801365
41 *348:216 0.000347938
42 *348:212 0.000303186
43 *348:210 0.000715469
44 *348:204 0.000654401
45 *348:198 0.000168241
46 *348:194 0.00122603
47 *348:183 0.000279054
48 *348:179 0.000332425
49 *348:173 0.000331502
50 *348:171 0.0010538
51 *348:161 0.00281265
52 *348:134 0.0019469
53 *348:125 0.00236815
54 *348:106 0.00248933
55 *348:99 0.00105259
56 *348:64 0.000259722
57 *348:60 9.41059e-05
58 *348:47 0.000244459
59 *348:45 0.000439312
60 *348:39 0.000648403
61 *348:35 0.0013459
62 *348:28 0.000135045
63 *348:20 0.000316062
64 *348:14 0.000208791
65 *348:12 0.000226777
66 *937:DIODE *9161:A 8.66063e-05
67 *937:DIODE *696:16 0.000113083
68 *948:DIODE *730:90 0.000142856
69 *952:DIODE *792:49 2.27416e-05
70 *958:DIODE *9468:B2 5.83304e-05
71 *958:DIODE *9642:RESET_B 5.33005e-05
72 *958:DIODE *739:92 0.000148189
73 *958:DIODE *836:8 6.05161e-06
74 *958:DIODE *836:10 0.000100823
75 *980:DIODE *9230:B2 4.1331e-06
76 *980:DIODE *9232:A 4.15914e-05
77 *980:DIODE *371:8 2.79092e-05
78 *980:DIODE *786:10 2.59795e-05
79 *983:DIODE *9240:B 0.000273269
80 *991:DIODE *385:6 0.000136951
81 *995:DIODE *736:28 9.71197e-05
82 *9190:B1 *9161:A 1.04232e-05
83 *9200:B1 *9200:A1 9.71197e-05
84 *9200:B1 *601:66 8.91726e-05
85 *9200:B1 *616:20 0
86 *9200:B1 *616:34 0
87 *9225:A *9225:B 0.000135028
88 *9237:A *9579:A 5.62995e-05
89 *9237:A *9673:CLK 0.000176234
90 *9237:A *598:18 5.66157e-05
91 *9237:A *783:55 0.000274288
92 *9243:A *736:28 0.000178847
93 *348:12 *9219:B 0.000152333
94 *348:12 *9230:B2 5.16852e-05
95 *348:12 *9266:A 6.05161e-06
96 *348:12 *741:130 5.69519e-05
97 *348:12 *741:164 0
98 *348:20 *786:29 7.66715e-05
99 *348:28 *9676:RESET_B 5.7616e-05
100 *348:28 *786:29 0.000186669
101 *348:35 *786:29 4.18895e-05
102 *348:39 *9218:B2 1.76039e-05
103 *348:39 *9231:B 0
104 *348:39 *9233:B2 4.06782e-05
105 *348:39 *9513:A1 0
106 *348:39 *9676:RESET_B 0
107 *348:39 *9677:D 0
108 *348:45 *9218:B2 0.00018569
109 *348:45 *9224:B2 0
110 *348:45 *9234:B 0.000314465
111 *348:60 *9224:B2 0
112 *348:60 *9240:B 0.000129868
113 *348:60 *369:92 0.000150618
114 *348:64 *9225:B 1.24368e-05
115 *348:64 *9240:B 1.33343e-05
116 *348:99 *9506:A 9.90367e-05
117 *348:99 *9508:B 0.000118592
118 *348:99 *9671:CLK 6.05161e-06
119 *348:99 *786:29 0.000130419
120 *348:99 *786:40 0.000797099
121 *348:106 *9671:CLK 1.98839e-05
122 *348:125 *9499:A1 0.000172745
123 *348:125 *9671:D 0.000122091
124 *348:125 *9671:RESET_B 0.000145512
125 *348:125 *9841:A 0.000127267
126 *348:125 *740:131 5.41609e-05
127 *348:134 *373:12 0.000144773
128 *348:161 *1110:DIODE 4.95751e-05
129 *348:161 *9486:A1 1.46717e-05
130 *348:161 *9529:A0 0.000119385
131 *348:161 *9659:RESET_B 0.000127029
132 *348:161 *9682:RESET_B 0.000216442
133 *348:161 *373:12 6.9276e-05
134 *348:161 *442:127 0.000760857
135 *348:161 *541:366 0.00018372
136 *348:161 *792:8 1.02936e-05
137 *348:161 *792:10 0
138 *348:161 *793:20 0.000141985
139 *348:171 *9181:B2 0.000166008
140 *348:171 *9529:A0 1.53729e-05
141 *348:171 *9529:A1 0.000110593
142 *348:171 *9638:RESET_B 0.000161675
143 *348:171 *791:79 1.01417e-05
144 *348:171 *792:33 0.000294586
145 *348:171 *792:49 0
146 *348:173 *9638:RESET_B 1.69115e-05
147 *348:179 *9181:B2 2.09495e-05
148 *348:179 *9204:A2 9.25014e-06
149 *348:179 *9625:CLK 0.000403911
150 *348:179 *9638:RESET_B 4.29272e-05
151 *348:194 *9203:B2 0
152 *348:194 *9625:CLK 2.74584e-05
153 *348:194 *732:48 5.66157e-05
154 *348:198 *9203:B2 0
155 *348:198 *732:48 0.000193833
156 *348:204 *9203:B2 2.40966e-05
157 *348:204 *9228:B 0.000136958
158 *348:210 *927:DIODE 1.23589e-05
159 *348:210 *928:DIODE 0.000154333
160 *348:210 *939:DIODE 8.31664e-05
161 *348:210 *9191:B 0
162 *348:210 *9193:B1 0.000281513
163 *348:210 *9203:B2 3.71084e-05
164 *348:210 *619:51 2.62951e-05
165 *348:210 *619:160 6.59167e-05
166 *348:212 *939:DIODE 0.000102267
167 *348:212 *9193:B1 5.80706e-06
168 *348:212 *9215:B 0.000100823
169 *348:212 *732:44 0
170 *348:216 *939:DIODE 1.30594e-05
171 *348:216 *368:10 0.000128161
172 *348:216 *732:44 0
173 *348:220 *939:DIODE 5.49489e-05
174 *348:230 *9207:B 0.000183726
175 *348:230 *619:16 0.000125593
176 *348:230 *708:14 0.000126439
177 *348:240 *9207:B 9.71197e-05
178 *348:240 *9566:A1 2.27416e-05
179 *348:240 *9575:A 0
180 *348:240 *9705:RESET_B 0
181 *348:240 *858:21 0.000101545
182 *348:244 *9211:B 0.000176721
183 *348:244 *9575:A 0.000227532
184 *348:244 *9642:RESET_B 0
185 *348:244 *9705:RESET_B 8.18783e-05
186 *348:244 *739:106 2.58821e-05
187 *348:244 *739:113 0.000315364
188 *348:244 *739:120 4.17014e-05
189 *348:322 *951:DIODE 4.43256e-05
190 *348:322 *9161:A 3.98431e-05
191 *348:322 *9204:A2 2.95726e-05
192 *348:322 *9625:CLK 9.71197e-05
193 *348:322 *732:50 2.59355e-05
194 *348:331 *9161:A 7.66995e-05
195 *348:343 *9168:D1 9.60875e-05
196 *348:343 *601:66 3.98428e-05
197 *348:343 *616:20 0
198 *348:343 *866:38 1.95045e-05
199 *348:343 *873:20 0.000133491
200 *348:343 *873:28 9.41642e-05
201 *9075:A *348:125 0.000118345
202 *9075:A *348:134 0.000116746
203 *9075:A *348:161 0.000324344
204 *9075:B *348:125 2.32517e-05
205 *9103:A *348:161 0.000101545
206 *9103:B *348:161 4.25716e-05
207 *9185:A *9215:A 0.000133898
208 *9187:C1 *348:343 0.000498798
209 *9190:A1 *348:322 0.000210742
210 *9191:C *348:210 9.91086e-05
211 *9197:B *9200:B1 9.90431e-05
212 *9203:A2 *348:322 0.000123095
213 *9203:B1 *348:198 3.25078e-05
214 *9203:B1 *348:204 5.4695e-05
215 *9203:B1 *348:210 0.000546275
216 *9233:A2 *348:45 3.69047e-06
217 *9456:A2 *9243:A 0.000178847
218 *9657:D *348:161 0.00039865
219 *9657:D *348:171 0.000157672
220 *9676:D *348:99 0.00010096
221 *9710:D *9237:A 0
222 *9723:A *348:171 2.02346e-07
223 *299:27 *348:161 0
224 *299:27 *348:171 0
225 *323:8 *348:343 3.28941e-05
226 *325:10 *348:343 0
227 *335:101 *348:322 2.69359e-05
228 *337:112 *348:198 8.15095e-05
229 *337:114 *348:204 2.79421e-05
230 *337:144 *348:204 1.21258e-05
231 *337:315 *348:45 9.90367e-05
232 *337:325 *348:45 1.18064e-05
233 *337:339 *348:12 0.000136958
234 *337:339 *348:39 0
235 *342:31 *348:343 1.02504e-05
236 *342:48 *348:343 0.000326716
237 *344:10 *348:230 0.000142944
238 *344:65 *348:210 0
239 *344:89 *348:171 7.83366e-05
240 *344:89 *348:173 2.61337e-05
241 *344:89 *348:179 0.000231358
242 *344:100 *348:171 0.000131247
243 *344:113 *348:171 0.000217812
244 *344:126 *348:171 0.000210538
245 *347:14 *980:DIODE 0
246 *347:103 *952:DIODE 7.48301e-06
247 *347:103 *348:179 2.59355e-05
248 *347:103 *348:183 7.77652e-05
*RES
1 *9189:X *348:12 17.8357 
2 *348:12 *348:14 4.5 
3 *348:14 *348:20 3.44643 
4 *348:20 *348:28 11.5 
5 *348:28 *966:DIODE 9.3 
6 *348:28 *348:35 0.535714 
7 *348:35 *348:39 10.0893 
8 *348:39 *348:45 13 
9 *348:45 *348:47 1.35714 
10 *348:47 *991:DIODE 11.0679 
11 *348:47 *348:60 10.9464 
12 *348:60 *348:64 0.964286 
13 *348:64 *9225:A 11.8 
14 *348:64 *983:DIODE 11.8893 
15 *348:60 *974:DIODE 9.3 
16 *348:45 *9240:A 9.3 
17 *348:39 *9234:A 13.8 
18 *348:35 *348:99 19.4286 
19 *348:99 *987:DIODE 9.3 
20 *348:99 *348:106 0.535714 
21 *348:106 *9237:A 24.1571 
22 *348:106 *348:125 28.0893 
23 *348:125 *9222:A 9.72857 
24 *348:125 *348:134 3 
25 *348:134 *970:DIODE 9.3 
26 *348:134 *348:161 46.5625 
27 *348:161 *348:171 24.0804 
28 *348:171 *348:173 0.732143 
29 *348:173 *348:179 11.8393 
30 *348:179 *348:183 2.08929 
31 *348:183 *952:DIODE 10.2464 
32 *348:183 *348:194 6.44643 
33 *348:194 *348:198 7.05357 
34 *348:198 *348:204 6.58929 
35 *348:204 *348:210 14.75 
36 *348:210 *348:212 2.85714 
37 *348:212 *348:216 6.44643 
38 *348:216 *348:220 4.14286 
39 *348:220 *348:230 19.1071 
40 *348:230 *348:240 13.9643 
41 *348:240 *348:244 17.3929 
42 *348:244 *958:DIODE 20.7821 
43 *348:244 *9211:A 9.3 
44 *348:240 *954:DIODE 9.3 
45 *348:230 *9207:A 9.3 
46 *348:220 *943:DIODE 9.3 
47 *348:216 *961:DIODE 9.3 
48 *348:212 *9215:A 15.5857 
49 *348:210 *9196:B1 13.8 
50 *348:204 *977:DIODE 13.8 
51 *348:198 *9228:A 9.3 
52 *348:194 *348:322 18.9464 
53 *348:322 *9190:B1 9.72857 
54 *348:322 *348:331 0.946429 
55 *348:331 *348:343 25.3214 
56 *348:343 *9200:B1 16.9964 
57 *348:343 *948:DIODE 15.1571 
58 *348:331 *937:DIODE 12.3 
59 *348:179 *9204:B1 9.3 
60 *348:173 *995:DIODE 14.7464 
61 *348:171 *9243:A 15.5679 
62 *348:20 *9231:A 9.3 
63 *348:14 *9219:A 9.3 
64 *348:12 *980:DIODE 15.7464 
*END

*D_NET *349 0.000488456
*CONN
*I *9196:A1 I *D sky130_fd_sc_hd__o31a_2
*I *9191:X O *D sky130_fd_sc_hd__and4b_1
*CAP
1 *9196:A1 0.000107465
2 *9191:X 0.000107465
3 *9196:A1 *939:DIODE 2.34969e-05
4 *9196:A1 *9196:A2 1.17091e-05
5 *9196:A1 *9215:B 9.99853e-05
6 *9196:A1 *616:48 0.000138334
*RES
1 *9191:X *9196:A1 30.6179 
*END

*D_NET *350 0.0020118
*CONN
*I *9193:B1 I *D sky130_fd_sc_hd__a21o_1
*I *9192:X O *D sky130_fd_sc_hd__a22o_1
*CAP
1 *9193:B1 0.000513815
2 *9192:X 0.000513815
3 *9193:B1 *9196:A2 9.90431e-05
4 *9193:B1 *9196:A3 4.13496e-05
5 *9193:B1 *698:49 0.000106214
6 *9193:B1 *732:44 6.87601e-05
7 *9191:C *9193:B1 9.91086e-05
8 *9192:A2 *9193:B1 3.68279e-05
9 *335:32 *9193:B1 9.76491e-05
10 *337:8 *9193:B1 4.87854e-05
11 *341:21 *9193:B1 9.91086e-05
12 *348:210 *9193:B1 0.000281513
13 *348:212 *9193:B1 5.80706e-06
*RES
1 *9192:X *9193:B1 38.7607 
*END

*D_NET *351 0.000601168
*CONN
*I *9196:A2 I *D sky130_fd_sc_hd__o31a_2
*I *9193:X O *D sky130_fd_sc_hd__a21o_1
*CAP
1 *9196:A2 9.16739e-05
2 *9193:X 9.16739e-05
3 *9196:A2 *9196:A3 0.000226513
4 *9196:A2 *9215:B 7.02611e-05
5 *9193:B1 *9196:A2 9.90431e-05
6 *9196:A1 *9196:A2 1.17091e-05
7 *335:32 *9196:A2 1.02936e-05
*RES
1 *9193:X *9196:A2 21.6179 
*END

*D_NET *352 0.00068632
*CONN
*I *9195:C1 I *D sky130_fd_sc_hd__a221o_1
*I *9194:X O *D sky130_fd_sc_hd__and3_1
*CAP
1 *9195:C1 0.000237563
2 *9194:X 0.000237563
3 *9195:C1 *9195:B2 9.25014e-06
4 *9195:C1 *404:79 2.14474e-05
5 *9195:C1 *616:34 8.18752e-05
6 *342:16 *9195:C1 7.6644e-05
7 *342:31 *9195:C1 2.19778e-05
*RES
1 *9194:X *9195:C1 31.4214 
*END

*D_NET *353 0.00321286
*CONN
*I *9196:A3 I *D sky130_fd_sc_hd__o31a_2
*I *9195:X O *D sky130_fd_sc_hd__a221o_1
*CAP
1 *9196:A3 0.000585739
2 *9195:X 0.000585739
3 *9196:A3 *922:DIODE 0.000138881
4 *9196:A3 *9180:C 0.000156024
5 *9196:A3 *9193:A1 0.000223558
6 *9196:A3 *698:116 0.000221641
7 *9196:A3 *698:126 0.000284564
8 *9196:A3 *899:28 2.77289e-05
9 *9183:C *9196:A3 1.02504e-05
10 *9193:B1 *9196:A3 4.13496e-05
11 *9194:C *9196:A3 0.000394981
12 *9195:A2 *9196:A3 5.71472e-05
13 *9195:B1 *9196:A3 0
14 *9196:A2 *9196:A3 0.000226513
15 *334:14 *9196:A3 5.01117e-05
16 *335:32 *9196:A3 1.57523e-05
17 *338:25 *9196:A3 5.48968e-05
18 *338:29 *9196:A3 0.000137983
*RES
1 *9195:X *9196:A3 43.5643 
*END

*D_NET *354 0.000565236
*CONN
*I *9200:A1 I *D sky130_fd_sc_hd__o21a_1
*I *9197:X O *D sky130_fd_sc_hd__and2_1
*CAP
1 *9200:A1 6.16999e-05
2 *9197:X 6.16999e-05
3 *9200:A1 *899:28 0.000267377
4 *9197:B *9200:A1 4.43157e-05
5 *9200:B1 *9200:A1 9.71197e-05
6 *342:27 *9200:A1 3.30237e-05
*RES
1 *9197:X *9200:A1 21.1893 
*END

*D_NET *355 0.000956227
*CONN
*I *9199:C1 I *D sky130_fd_sc_hd__a221o_1
*I *9198:X O *D sky130_fd_sc_hd__a22o_1
*CAP
1 *9199:C1 0.000271785
2 *9198:X 0.000271785
3 *9199:C1 *9186:B1 7.49152e-05
4 *9199:C1 *619:127 7.46707e-05
5 *9181:C1 *9199:C1 7.83659e-05
6 *9186:B2 *9199:C1 7.06728e-05
7 *9187:C1 *9199:C1 5.52302e-05
8 *341:27 *9199:C1 3.34875e-05
9 *344:322 *9199:C1 2.53134e-05
*RES
1 *9198:X *9199:C1 33.3143 
*END

*D_NET *356 0.00107853
*CONN
*I *9200:A2 I *D sky130_fd_sc_hd__o21a_1
*I *9199:X O *D sky130_fd_sc_hd__a221o_1
*CAP
1 *9200:A2 0.000257583
2 *9199:X 0.000257583
3 *9200:A2 *9195:B2 5.27904e-05
4 *9200:A2 *730:90 4.18895e-05
5 *9200:A2 *730:98 0.000365426
6 *341:27 *9200:A2 0
7 *342:31 *9200:A2 0.00010326
*RES
1 *9199:X *9200:A2 33.1893 
*END

*D_NET *357 0.0012331
*CONN
*I *9204:A1 I *D sky130_fd_sc_hd__o21a_2
*I *9201:X O *D sky130_fd_sc_hd__and2_1
*CAP
1 *9204:A1 0.000393472
2 *9201:X 0.000393472
3 *9204:A1 *9625:SET_B 0
4 *9204:A1 *404:71 0
5 *9181:A2 *9204:A1 7.6644e-05
6 *9190:A1 *9204:A1 5.52302e-05
7 *337:165 *9204:A1 0.00012798
8 *347:103 *9204:A1 0.0001863
*RES
1 *9201:X *9204:A1 35.6179 
*END

*D_NET *358 0.000368379
*CONN
*I *9203:C1 I *D sky130_fd_sc_hd__a221o_1
*I *9202:X O *D sky130_fd_sc_hd__a22o_1
*CAP
1 *9203:C1 8.71447e-05
2 *9202:X 8.71447e-05
3 *9203:C1 *369:280 7.01032e-05
4 *9203:C1 *732:62 6.91186e-05
5 *9202:B1 *9203:C1 1.83053e-05
6 *344:65 *9203:C1 5.80706e-06
7 *344:78 *9203:C1 3.07555e-05
*RES
1 *9202:X *9203:C1 29.6893 
*END

*D_NET *359 0.000758338
*CONN
*I *9204:A2 I *D sky130_fd_sc_hd__o21a_2
*I *9203:X O *D sky130_fd_sc_hd__a221o_1
*CAP
1 *9204:A2 0.00022044
2 *9203:X 0.00022044
3 *9204:A2 *951:DIODE 9.71197e-05
4 *9204:A2 *9181:B2 6.74911e-05
5 *9204:A2 *9625:CLK 6.07232e-05
6 *9204:A2 *732:50 5.33005e-05
7 *348:179 *9204:A2 9.25014e-06
8 *348:322 *9204:A2 2.95726e-05
*RES
1 *9203:X *9204:A2 31.4214 
*END

*D_NET *360 0.00126535
*CONN
*I *9206:C1 I *D sky130_fd_sc_hd__a221o_1
*I *9205:X O *D sky130_fd_sc_hd__a22o_1
*CAP
1 *9206:C1 0.000345014
2 *9205:X 0.000345014
3 *9206:C1 *9191:A_N 9.99853e-05
4 *9206:C1 *9206:B2 0
5 *9206:C1 *9210:A1 0.000139491
6 *9206:C1 *9214:B1 4.93875e-05
7 *9206:C1 *698:27 6.84905e-05
8 *9206:C1 *899:28 0.000130308
9 *9206:A2 *9206:C1 5.67486e-05
10 *344:19 *9206:C1 3.4846e-06
11 *344:36 *9206:C1 2.74273e-05
*RES
1 *9205:X *9206:C1 34.1357 
*END

*D_NET *361 0.00120464
*CONN
*I *9207:B I *D sky130_fd_sc_hd__and2_1
*I *9206:X O *D sky130_fd_sc_hd__a221o_1
*CAP
1 *9207:B 0.000213768
2 *9206:X 0.000213768
3 *9207:B *859:31 0.00032246
4 *9207:B *862:27 0.000173799
5 *348:230 *9207:B 0.000183726
6 *348:240 *9207:B 9.71197e-05
*RES
1 *9206:X *9207:B 34.2607 
*END

*D_NET *362 0.00385767
*CONN
*I *9208:A I *D sky130_fd_sc_hd__clkbuf_1
*I *9207:X O *D sky130_fd_sc_hd__and2_1
*CAP
1 *9208:A 0.000178871
2 *9207:X 0.00170259
3 *362:10 0.00188146
4 *362:10 *9575:A 0
5 *362:10 *9705:RESET_B 9.47456e-05
6 *362:10 *698:18 0
7 *9708:D *362:10 0
*RES
1 *9207:X *362:10 49.3893 
2 *362:10 *9208:A 12.3 
*END

*D_NET *363 0.000341492
*CONN
*I *9210:B1 I *D sky130_fd_sc_hd__a21o_1
*I *9209:X O *D sky130_fd_sc_hd__a22o_1
*CAP
1 *9210:B1 0.000150819
2 *9209:X 0.000150819
3 *9210:B1 *743:90 0
4 *9210:B1 *743:96 5.80706e-06
5 *9210:B1 *815:10 0
6 *9210:B1 *857:35 2.99134e-05
7 *9210:A2 *9210:B1 4.1331e-06
*RES
1 *9209:X *9210:B1 30.6179 
*END

*D_NET *364 0.00115354
*CONN
*I *9211:B I *D sky130_fd_sc_hd__and2_1
*I *9210:X O *D sky130_fd_sc_hd__a21o_1
*CAP
1 *9211:B 0.000328912
2 *9210:X 0.000328912
3 *9211:B *9642:RESET_B 5.7661e-06
4 *9211:B *739:106 0.000227532
5 *9211:B *739:113 8.57023e-05
6 *9211:B *743:90 0
7 *9211:B *815:10 0
8 *9210:A2 *9211:B 0
9 *348:244 *9211:B 0.000176721
*RES
1 *9210:X *9211:B 35.1 
*END

*D_NET *365 0.000365789
*CONN
*I *9212:A I *D sky130_fd_sc_hd__clkbuf_2
*I *9211:X O *D sky130_fd_sc_hd__and2_1
*CAP
1 *9212:A 0.000103646
2 *9211:X 0.000103646
3 *9212:A *9566:A0 5.52302e-05
4 *9212:A *815:10 0.000103267
*RES
1 *9211:X *9212:A 29.475 
*END

*D_NET *366 0.00134869
*CONN
*I *9214:B1 I *D sky130_fd_sc_hd__a21o_1
*I *9213:X O *D sky130_fd_sc_hd__a22o_1
*CAP
1 *9214:B1 0.000395312
2 *9213:X 0.000395312
3 *9214:B1 *9205:B2 8.1244e-05
4 *9214:B1 *616:48 5.33005e-05
5 *9214:B1 *619:38 0.00019408
6 *9206:C1 *9214:B1 4.93875e-05
7 *9213:B1 *9214:B1 0.00013921
8 *335:32 *9214:B1 2.84026e-05
9 *336:18 *9214:B1 1.24368e-05
*RES
1 *9213:X *9214:B1 35.0821 
*END

*D_NET *367 0.00105168
*CONN
*I *9215:B I *D sky130_fd_sc_hd__and2_1
*I *9214:X O *D sky130_fd_sc_hd__a21o_1
*CAP
1 *9215:B 0.000191673
2 *9214:X 0.000191673
3 *9215:B *616:48 3.08664e-05
4 *9215:B *732:44 0
5 *9185:A *9215:B 1.38384e-05
6 *9196:A1 *9215:B 9.99853e-05
7 *9196:A2 *9215:B 7.02611e-05
8 *335:32 *9215:B 0.00035256
9 *348:212 *9215:B 0.000100823
*RES
1 *9214:X *9215:B 33.0821 
*END

*D_NET *368 0.00391203
*CONN
*I *9216:A I *D sky130_fd_sc_hd__clkbuf_1
*I *9215:X O *D sky130_fd_sc_hd__and2_1
*CAP
1 *9216:A 0.000120868
2 *9215:X 0.00164691
3 *368:10 0.00176777
4 *9216:A *9894:A 0.000100595
5 *368:10 *939:DIODE 0.000147725
6 *368:10 *9627:CLK 0
7 *368:10 *708:14 0
8 *368:10 *732:44 0
9 *348:216 *368:10 0.000128161
*RES
1 *9215:X *368:10 49.3893 
2 *368:10 *9216:A 11.8893 
*END

*D_NET *369 0.057172
*CONN
*I *9252:C I *D sky130_fd_sc_hd__and3_1
*I *1003:DIODE I *D sky130_fd_sc_hd__diode_2
*I *1013:DIODE I *D sky130_fd_sc_hd__diode_2
*I *9260:C I *D sky130_fd_sc_hd__and3_1
*I *1029:DIODE I *D sky130_fd_sc_hd__diode_2
*I *9272:C I *D sky130_fd_sc_hd__and3_1
*I *1015:DIODE I *D sky130_fd_sc_hd__diode_2
*I *9262:C I *D sky130_fd_sc_hd__and3_1
*I *9258:C I *D sky130_fd_sc_hd__and3_1
*I *1011:DIODE I *D sky130_fd_sc_hd__diode_2
*I *9268:C I *D sky130_fd_sc_hd__and3_1
*I *1024:DIODE I *D sky130_fd_sc_hd__diode_2
*I *9227:A2 I *D sky130_fd_sc_hd__a22o_1
*I *975:DIODE I *D sky130_fd_sc_hd__diode_2
*I *9224:A2 I *D sky130_fd_sc_hd__a22o_1
*I *968:DIODE I *D sky130_fd_sc_hd__diode_2
*I *9221:A2 I *D sky130_fd_sc_hd__a22o_1
*I *972:DIODE I *D sky130_fd_sc_hd__diode_2
*I *1021:DIODE I *D sky130_fd_sc_hd__diode_2
*I *9266:C I *D sky130_fd_sc_hd__and3_1
*I *9218:A2 I *D sky130_fd_sc_hd__a22o_1
*I *964:DIODE I *D sky130_fd_sc_hd__diode_2
*I *9230:A2 I *D sky130_fd_sc_hd__a22o_1
*I *978:DIODE I *D sky130_fd_sc_hd__diode_2
*I *9254:C I *D sky130_fd_sc_hd__and3_1
*I *1006:DIODE I *D sky130_fd_sc_hd__diode_2
*I *9270:C I *D sky130_fd_sc_hd__and3_1
*I *1027:DIODE I *D sky130_fd_sc_hd__diode_2
*I *1009:DIODE I *D sky130_fd_sc_hd__diode_2
*I *1018:DIODE I *D sky130_fd_sc_hd__diode_2
*I *9264:C I *D sky130_fd_sc_hd__and3_1
*I *9256:C I *D sky130_fd_sc_hd__and3_1
*I *9217:X O *D sky130_fd_sc_hd__buf_4
*CAP
1 *9252:C 0.000327326
2 *1003:DIODE 7.70702e-05
3 *1013:DIODE 6.17285e-05
4 *9260:C 6.54019e-05
5 *1029:DIODE 0.000106797
6 *9272:C 7.61911e-05
7 *1015:DIODE 0
8 *9262:C 1.22504e-05
9 *9258:C 0
10 *1011:DIODE 0.000152379
11 *9268:C 0
12 *1024:DIODE 0
13 *9227:A2 0
14 *975:DIODE 0
15 *9224:A2 0
16 *968:DIODE 0
17 *9221:A2 0.000499735
18 *972:DIODE 0
19 *1021:DIODE 0.000150374
20 *9266:C 6.45698e-05
21 *9218:A2 1.35541e-05
22 *964:DIODE 7.94564e-05
23 *9230:A2 0
24 *978:DIODE 0
25 *9254:C 0
26 *1006:DIODE 0.000162793
27 *9270:C 9.11093e-05
28 *1027:DIODE 2.1663e-05
29 *1009:DIODE 3.12063e-05
30 *1018:DIODE 0.000301137
31 *9264:C 1.52077e-05
32 *9256:C 0
33 *9217:X 0
34 *369:402 0.00122417
35 *369:389 0.0010542
36 *369:372 0.000335942
37 *369:356 0.000182988
38 *369:354 0.000354201
39 *369:345 0.000392003
40 *369:334 0.000415235
41 *369:321 0.000314599
42 *369:304 0.000308967
43 *369:297 0.000262108
44 *369:290 0.00350611
45 *369:280 0.00553763
46 *369:261 0.00243988
47 *369:248 0.00161591
48 *369:201 0.00195946
49 *369:190 0.00167869
50 *369:184 0.000283692
51 *369:158 0.000355311
52 *369:138 0.000174
53 *369:131 8.09894e-05
54 *369:129 0.000253202
55 *369:104 0.000432886
56 *369:94 0.000294021
57 *369:92 0.000490664
58 *369:82 0.000875605
59 *369:60 0.000330411
60 *369:56 0.00133649
61 *369:31 0.000369288
62 *369:18 0.000209671
63 *369:14 0.00029876
64 *369:10 0.00187145
65 *369:4 0.00245907
66 *964:DIODE *9219:B 2.56694e-05
67 *964:DIODE *9230:B2 0.000148196
68 *964:DIODE *741:130 0
69 *1003:DIODE *9279:C 8.43535e-06
70 *1003:DIODE *9279:D 2.89016e-05
71 *1006:DIODE *9230:B2 0
72 *1006:DIODE *381:12 0.000296394
73 *1009:DIODE *611:34 9.90431e-05
74 *1011:DIODE *396:14 2.34204e-05
75 *1011:DIODE *894:22 0
76 *1018:DIODE *1213:DIODE 9.33978e-07
77 *1018:DIODE *9264:A 0.000186662
78 *1018:DIODE *894:22 8.27184e-06
79 *1021:DIODE *1019:DIODE 0
80 *1027:DIODE *9271:A 3.48705e-05
81 *1027:DIODE *727:8 5.71472e-05
82 *9218:A2 *963:DIODE 4.18895e-05
83 *9218:A2 *381:8 5.33005e-05
84 *9221:A2 *9221:A1 6.76178e-05
85 *9221:A2 *9236:A1 0
86 *9221:A2 *9237:B 0.000125724
87 *9221:A2 *9465:A 2.05938e-05
88 *9221:A2 *9482:A1 0.000368878
89 *9221:A2 *9482:A2 1.41029e-05
90 *9221:A2 *9868:A 0.000177375
91 *9221:A2 *536:12 0.000122814
92 *9221:A2 *538:59 0
93 *9252:C *9279:A 0.000103977
94 *9252:C *9279:B 1.08359e-05
95 *9252:C *9279:C 7.43578e-06
96 *9252:C *9386:C_N 5.33005e-05
97 *9252:C *9390:C 0.000261234
98 *9252:C *9393:A 6.28499e-05
99 *9252:C *393:10 2.26327e-05
100 *9252:C *487:29 0.000193125
101 *9252:C *493:10 6.28499e-05
102 *9260:C *9260:A 3.88458e-05
103 *9260:C *397:6 3.57366e-05
104 *9262:C *893:12 1.95435e-05
105 *9270:C *9226:A 0.000132794
106 *9270:C *9271:A 0.00010096
107 *369:10 *9477:B1 0.000227532
108 *369:10 *539:310 0.000214198
109 *369:10 *592:14 3.98462e-05
110 *369:10 *592:20 0
111 *369:10 *826:22 0.000142856
112 *369:10 *863:44 1.98839e-05
113 *369:10 *863:88 0.000131395
114 *369:10 *895:120 0.000101825
115 *369:14 *755:14 4.33532e-05
116 *369:18 *611:34 7.37055e-05
117 *369:31 *9257:A 4.15914e-05
118 *369:56 *9230:A1 0
119 *369:56 *9443:A 4.15914e-05
120 *369:56 *9714:SET_B 0.000184635
121 *369:56 *755:14 0.000337358
122 *369:56 *798:20 1.21859e-05
123 *369:56 *895:120 0
124 *369:56 *895:122 0
125 *369:60 *9226:A 0.000181742
126 *369:82 *9226:A 6.05161e-06
127 *369:82 *9270:A 8.43535e-06
128 *369:82 *9442:A0 8.70166e-05
129 *369:82 *9449:A 0.00021717
130 *369:82 *9632:CLK 0
131 *369:82 *595:10 0
132 *369:82 *895:122 0.000214025
133 *369:92 *9224:B2 0
134 *369:92 *9225:B 0.000150618
135 *369:92 *9674:RESET_B 2.14757e-05
136 *369:92 *784:10 0.00021843
137 *369:92 *895:122 0.000503639
138 *369:94 *9674:RESET_B 2.89016e-05
139 *369:104 *9254:A 5.52238e-05
140 *369:104 *9639:RESET_B 0.000224583
141 *369:104 *9674:RESET_B 2.89114e-05
142 *369:104 *9715:RESET_B 6.42145e-05
143 *369:104 *381:12 4.85746e-05
144 *369:104 *596:21 5.12966e-05
145 *369:104 *812:12 0.000173797
146 *369:129 *9230:A1 6.41079e-05
147 *369:129 *9674:RESET_B 1.76135e-05
148 *369:138 *963:DIODE 0.00010096
149 *369:138 *9230:A1 0.000140933
150 *369:138 *9230:B2 7.96236e-05
151 *369:138 *381:8 0.000397918
152 *369:158 *895:122 0
153 *369:184 *9224:B2 6.19965e-06
154 *369:190 *9453:A 0.000188586
155 *369:190 *741:62 0.000195455
156 *369:201 *9453:A 0.000512047
157 *369:201 *9465:A 0.000238637
158 *369:201 *9558:A0 0.000144951
159 *369:201 *9558:A1 0.00012352
160 *369:201 *9734:A 5.52302e-05
161 *369:201 *536:12 5.52302e-05
162 *369:201 *566:22 7.31177e-05
163 *369:201 *566:24 2.61014e-05
164 *369:201 *595:10 5.04705e-05
165 *369:201 *595:60 0.000170898
166 *369:248 *1159:DIODE 9.90431e-05
167 *369:248 *9550:A0 0
168 *369:248 *9630:CLK 0.000302406
169 *369:248 *9633:CLK 3.66334e-05
170 *369:248 *566:62 0
171 *369:248 *592:14 1.98839e-05
172 *369:248 *732:62 0.000111763
173 *369:261 *9247:A 2.56694e-05
174 *369:280 *9202:A1 0.000245947
175 *369:280 *9203:B2 0.000279141
176 *369:280 *9227:A1 1.04232e-05
177 *369:280 *9227:B2 0
178 *369:280 *9799:A 2.89016e-05
179 *369:280 *376:16 0.000602142
180 *369:280 *388:16 0.000356028
181 *369:280 *732:62 0.000196509
182 *369:280 *756:10 0.00014183
183 *369:290 *9268:A 0.00101514
184 *369:290 *9428:A0 4.87953e-05
185 *369:290 *584:38 0
186 *369:290 *584:61 0.000173921
187 *369:290 *584:72 0.00024769
188 *369:290 *616:20 2.06178e-05
189 *369:290 *721:14 0
190 *369:290 *757:74 0.000265418
191 *369:290 *865:12 0.00022289
192 *369:290 *865:25 5.70351e-05
193 *369:290 *894:22 0.00116117
194 *369:297 *9268:A 0.00014183
195 *369:297 *729:56 3.97978e-05
196 *369:304 *9258:A 5.62995e-05
197 *369:304 *729:56 2.279e-05
198 *369:321 *9258:A 1.04232e-05
199 *369:321 *729:56 4.03657e-05
200 *369:334 *9258:A 0
201 *369:334 *729:56 4.78014e-05
202 *369:345 *1034:DIODE 0
203 *369:345 *9258:A 0
204 *369:345 *891:20 0
205 *369:345 *892:12 8.32242e-05
206 *369:354 *9260:A 0.000293429
207 *369:354 *892:12 0.000258422
208 *369:354 *892:60 0.00022287
209 *369:372 *9260:A 0.000114045
210 *369:389 *9808:A 0
211 *369:402 *9278:A 7.05982e-05
212 *369:402 *9280:A 6.09476e-05
213 *369:402 *9280:B 5.90443e-06
214 *369:402 *9280:C 0.000358861
215 *369:402 *9368:B 2.26424e-05
216 *369:402 *9394:B 9.91086e-05
217 *369:402 *9606:RESET_B 0
218 *369:402 *408:10 0.000651561
219 *369:402 *472:8 1.08359e-05
220 *369:402 *748:67 0
221 *369:402 *748:79 0.00013937
222 *369:402 *875:8 0.000152333
223 *369:402 *875:25 0.000195555
224 *1002:DIODE *9252:C 9.60939e-05
225 *1023:DIODE *1011:DIODE 0.000144773
226 *1023:DIODE *369:334 7.83587e-05
227 *9100:A *369:280 5.33005e-05
228 *9100:B *369:280 0.00014183
229 *9115:A *369:280 5.52302e-05
230 *9115:B *369:280 5.33334e-05
231 *9132:B2 *369:280 9.99644e-06
232 *9164:A1 *369:290 0.000151688
233 *9167:C1 *369:290 7.69776e-06
234 *9189:A *9266:C 6.47668e-05
235 *9202:B1 *369:280 8.15297e-05
236 *9203:C1 *369:280 7.01032e-05
237 *9217:A *369:10 6.87574e-05
238 *9217:A *369:248 0.000163832
239 *9221:B1 *9221:A2 8.7498e-05
240 *9224:B1 *369:190 0
241 *9227:B1 *369:261 0.000180637
242 *9230:B1 *369:129 5.80706e-06
243 *9230:B1 *369:158 1.08524e-05
244 *9246:A *369:261 1.02504e-05
245 *9246:A *369:280 0.000108151
246 *9260:B *9260:C 3.06878e-06
247 *9264:B *9264:C 6.33946e-06
248 *9270:B *369:60 9.41642e-05
249 *9272:B *1029:DIODE 1.21258e-05
250 *9272:B *9272:C 2.45152e-05
251 *9442:S *369:82 0.000137983
252 *9632:D *369:82 0.000169804
253 *9639:D *369:104 1.19309e-05
254 *238:14 *369:261 0
255 *322:112 *369:56 0.00010326
256 *337:243 *9221:A2 7.61932e-05
257 *337:273 *369:190 0.000320024
258 *337:273 *369:201 5.71472e-05
259 *337:339 *9266:C 0
260 *337:339 *369:158 0.000140107
261 *344:65 *369:280 0
262 *347:14 *1021:DIODE 3.38136e-05
263 *347:14 *369:158 2.10446e-05
264 *347:16 *369:158 1.00375e-05
265 *347:22 *369:56 6.8646e-06
266 *347:22 *369:129 6.34847e-05
267 *347:28 *369:14 3.5707e-05
268 *347:28 *369:56 0.00040818
269 *347:30 *369:18 1.46768e-06
270 *347:38 *369:14 0
271 *347:78 *369:18 8.0786e-06
272 *347:145 *369:345 0.000191163
273 *347:145 *369:354 0.000340931
274 *347:147 *369:334 0.000281743
275 *347:147 *369:345 0.000103974
276 *347:201 *369:354 0.000347415
277 *347:214 *1029:DIODE 3.67257e-05
278 *347:218 *369:372 0
279 *347:218 *369:389 0
280 *347:234 *369:389 0
281 *347:234 *369:402 0
282 *348:60 *369:92 0.000150618
*RES
1 *9217:X *369:4 9.3 
2 *369:4 *369:10 23.125 
3 *369:10 *369:14 6.44643 
4 *369:14 *369:18 2.46429 
5 *369:18 *9256:C 9.3 
6 *369:18 *369:31 10.0357 
7 *369:31 *9264:C 9.49643 
8 *369:31 *1018:DIODE 13.1214 
9 *369:14 *1009:DIODE 10.2464 
10 *369:10 *369:56 24.0536 
11 *369:56 *369:60 4.25 
12 *369:60 *1027:DIODE 10.2464 
13 *369:60 *9270:C 11.7286 
14 *369:56 *369:82 15.5804 
15 *369:82 *369:92 14.0804 
16 *369:92 *369:94 0.535714 
17 *369:94 *369:104 15.2679 
18 *369:104 *1006:DIODE 12.7821 
19 *369:104 *9254:C 9.3 
20 *369:94 *978:DIODE 9.3 
21 *369:92 *369:129 7.35714 
22 *369:129 *369:131 4.5 
23 *369:131 *9230:A2 9.3 
24 *369:131 *369:138 3.82143 
25 *369:138 *964:DIODE 20.2464 
26 *369:138 *9218:A2 9.83571 
27 *369:129 *369:158 3.16071 
28 *369:158 *9266:C 14.9429 
29 *369:158 *1021:DIODE 16.0857 
30 *369:82 *369:184 1.4375 
31 *369:184 *369:190 11.5 
32 *369:190 *972:DIODE 9.3 
33 *369:190 *369:201 23.2679 
34 *369:201 *9221:A2 30.2107 
35 *369:201 *968:DIODE 9.3 
36 *369:184 *9224:A2 13.8 
37 *369:4 *369:248 28.3214 
38 *369:248 *975:DIODE 9.3 
39 *369:248 *369:261 13.125 
40 *369:261 *9227:A2 9.3 
41 *369:261 *369:280 49.3832 
42 *369:280 *369:290 40.0131 
43 *369:290 *1024:DIODE 9.3 
44 *369:290 *369:297 2.29464 
45 *369:297 *9268:C 9.3 
46 *369:297 *369:304 1.65179 
47 *369:304 *1011:DIODE 20.6929 
48 *369:304 *369:321 1.10714 
49 *369:321 *9258:C 9.3 
50 *369:321 *369:334 10.4107 
51 *369:334 *9262:C 13.9964 
52 *369:334 *369:345 3.76786 
53 *369:345 *1015:DIODE 13.8 
54 *369:345 *369:354 9.83929 
55 *369:354 *369:356 4.5 
56 *369:356 *9272:C 10.1304 
57 *369:356 *1029:DIODE 10.6571 
58 *369:354 *369:372 1.64286 
59 *369:372 *9260:C 14.9741 
60 *369:372 *369:389 3.21429 
61 *369:389 *1013:DIODE 14.7464 
62 *369:389 *369:402 25.875 
63 *369:402 *1003:DIODE 10.2464 
64 *369:402 *9252:C 26.2107 
*END

*D_NET *370 0.000941092
*CONN
*I *9219:B I *D sky130_fd_sc_hd__and2_1
*I *9218:X O *D sky130_fd_sc_hd__a22o_1
*CAP
1 *9219:B 0.00022467
2 *9218:X 0.00022467
3 *9219:B *1019:DIODE 5.10822e-05
4 *9219:B *9230:B2 0
5 *9219:B *9231:B 0.00010096
6 *9219:B *741:130 0.000149911
7 *9219:B *895:122 1.17968e-05
8 *964:DIODE *9219:B 2.56694e-05
9 *347:14 *9219:B 0
10 *348:12 *9219:B 0.000152333
*RES
1 *9218:X *9219:B 32.6179 
*END

*D_NET *371 0.015615
*CONN
*I *9220:A I *D sky130_fd_sc_hd__clkbuf_1
*I *967:DIODE I *D sky130_fd_sc_hd__diode_2
*I *9219:X O *D sky130_fd_sc_hd__and2_1
*CAP
1 *9220:A 0.000155798
2 *967:DIODE 0
3 *9219:X 0
4 *371:12 0.0003446
5 *371:8 0.00763772
6 *371:6 0.00744892
7 *371:8 *9232:A 0
8 *371:8 *400:8 0
9 *980:DIODE *371:8 2.79092e-05
10 *347:10 *371:8 0
11 *347:12 *371:8 0
*RES
1 *9219:X *371:6 13.8 
2 *371:6 *371:8 137.036 
3 *371:8 *371:12 6.67857 
4 *371:12 *967:DIODE 9.3 
5 *371:12 *9220:A 12.1036 
*END

*D_NET *372 0.00514407
*CONN
*I *9222:B I *D sky130_fd_sc_hd__and2_1
*I *9221:X O *D sky130_fd_sc_hd__a22o_1
*CAP
1 *9222:B 0
2 *9221:X 0.00167699
3 *372:18 0.00167699
4 *372:18 *9067:B 0
5 *372:18 *9483:A 0.000357343
6 *372:18 *9685:CLK 0.000146523
7 *372:18 *9737:A 9.99644e-06
8 *372:18 *383:14 5.75882e-05
9 *372:18 *442:354 0
10 *372:18 *541:14 5.20359e-06
11 *372:18 *541:91 0.000127446
12 *372:18 *796:16 8.68735e-05
13 *9068:B *372:18 7.49239e-05
14 *9685:D *372:18 6.78055e-06
15 *232:18 *372:18 0
16 *266:8 *372:18 0
17 *337:235 *372:18 0.00073665
18 *337:237 *372:18 0.00018077
*RES
1 *9221:X *372:18 48.4786 
2 *372:18 *9222:B 9.3 
*END

*D_NET *373 0.0172774
*CONN
*I *9223:A I *D sky130_fd_sc_hd__clkbuf_1
*I *971:DIODE I *D sky130_fd_sc_hd__diode_2
*I *9222:X O *D sky130_fd_sc_hd__and2_1
*CAP
1 *9223:A 0.000186621
2 *971:DIODE 0
3 *9222:X 0.00108932
4 *373:20 0.000451825
5 *373:14 0.00670862
6 *373:12 0.00753274
7 *373:12 *9102:B 0.000125717
8 *373:12 *9492:B1 0
9 *373:12 *9537:S 3.81e-05
10 *373:12 *9800:A 0
11 *373:12 *541:218 0
12 *373:12 *589:43 0
13 *373:12 *589:61 0
14 *373:12 *793:20 0.000312215
15 *373:12 *803:12 0
16 *373:12 *844:10 0
17 *373:14 *9491:B2 0.000100913
18 *373:14 *9492:A1 1.00375e-05
19 *373:14 *9492:B1 3.85755e-05
20 *373:14 *9664:CLK 0
21 *373:14 *9664:D 0
22 *373:14 *9835:A 0
23 *373:14 *442:79 6.08101e-05
24 *373:14 *540:153 0
25 *373:14 *541:218 0
26 *373:14 *589:61 0
27 *373:14 *589:131 0
28 *373:14 *840:16 0.00024631
29 *9103:B *373:12 0
30 *9679:D *373:14 0
31 *9680:D *373:14 0.00010326
32 *9690:D *373:12 5.83233e-05
33 *232:18 *373:12 0
34 *348:134 *373:12 0.000144773
35 *348:161 *373:12 6.9276e-05
*RES
1 *9222:X *373:12 31.6125 
2 *373:12 *373:14 121.179 
3 *373:14 *373:20 9.33036 
4 *373:20 *971:DIODE 9.3 
5 *373:20 *9223:A 12.5143 
*END

*D_NET *374 0.000714581
*CONN
*I *9225:B I *D sky130_fd_sc_hd__and2_1
*I *9224:X O *D sky130_fd_sc_hd__a22o_1
*CAP
1 *9225:B 0.000208249
2 *9224:X 0.000208249
3 *9225:B *9224:B2 0
4 *9225:A *9225:B 0.000135028
5 *348:64 *9225:B 1.24368e-05
6 *369:92 *9225:B 0.000150618
*RES
1 *9224:X *9225:B 31.725 
*END

*D_NET *375 0.00229372
*CONN
*I *9226:A I *D sky130_fd_sc_hd__buf_1
*I *9225:X O *D sky130_fd_sc_hd__and2_1
*CAP
1 *9226:A 0.000359365
2 *9225:X 0.000359365
3 *9226:A *9230:A1 0
4 *9226:A *9270:A 0.000140933
5 *9226:A *741:72 0.000126439
6 *9226:A *741:86 0.000344932
7 *9270:C *9226:A 0.000132794
8 *322:127 *9226:A 0.000557559
9 *347:22 *9226:A 8.45386e-05
10 *369:60 *9226:A 0.000181742
11 *369:82 *9226:A 6.05161e-06
*RES
1 *9225:X *9226:A 39.9393 
*END

*D_NET *376 0.00698654
*CONN
*I *9228:B I *D sky130_fd_sc_hd__and2_1
*I *9227:X O *D sky130_fd_sc_hd__a22o_1
*CAP
1 *9228:B 0.000984634
2 *9227:X 0.00121044
3 *376:16 0.00219507
4 *9228:B *9098:A 5.91336e-05
5 *9228:B *9202:A1 1.21289e-05
6 *376:16 *9098:A 1.71947e-05
7 *376:16 *9799:A 5.52238e-05
8 *376:16 *388:16 0.000137515
9 *9099:B *376:16 7.79781e-06
10 *9100:A *376:16 2.89114e-05
11 *9100:B *376:16 4.87854e-05
12 *9107:A *9228:B 0.00014183
13 *9107:B *9228:B 0.000170955
14 *9115:A *376:16 2.89114e-05
15 *9115:B *376:16 9.90367e-05
16 *9132:B2 *376:16 6.20558e-05
17 *9181:B1 *9228:B 3.57366e-05
18 *9202:B1 *9228:B 1.48543e-05
19 *9246:A *376:16 0.000232399
20 *260:10 *376:16 0.000147834
21 *278:14 *376:16 0.000487467
22 *337:114 *9228:B 4.80089e-05
23 *337:144 *9228:B 2.15245e-05
24 *348:204 *9228:B 0.000136958
25 *369:280 *376:16 0.000602142
*RES
1 *9227:X *376:16 44.5321 
2 *376:16 *9228:B 25.4607 
*END

*D_NET *377 0.0081974
*CONN
*I *9229:A I *D sky130_fd_sc_hd__clkbuf_1
*I *9228:X O *D sky130_fd_sc_hd__and2_1
*CAP
1 *9229:A 0.00100997
2 *9228:X 0.00165362
3 *377:16 0.00266359
4 *9229:A *653:27 4.12023e-05
5 *377:16 *931:DIODE 0.000146313
6 *377:16 *9180:C 0
7 *377:16 *9181:A1 0.000269627
8 *377:16 *9186:A1 0
9 *377:16 *9186:B1 0
10 *377:16 *9193:A1 0.000433068
11 *377:16 *9194:A 0
12 *377:16 *9199:B2 0.000112438
13 *377:16 *9439:A 3.92854e-05
14 *377:16 *9586:D 3.28897e-05
15 *377:16 *9627:RESET_B 1.17968e-05
16 *377:16 *599:67 0.000389861
17 *377:16 *602:21 0
18 *377:16 *619:127 9.73985e-05
19 *377:16 *653:27 0.000662794
20 *377:16 *709:39 0.000161411
21 *377:16 *709:45 0.000101545
22 *377:16 *720:49 8.78961e-05
23 *377:16 *791:108 0
24 *9181:B1 *377:16 0.00018372
25 *9181:C1 *377:16 0
26 *9186:A3 *377:16 6.252e-05
27 *9625:D *377:16 0
28 *9627:D *377:16 0
29 *335:101 *377:16 0
30 *337:165 *377:16 2.13481e-06
31 *338:25 *377:16 3.4323e-05
*RES
1 *9228:X *377:16 48.6482 
2 *377:16 *9229:A 32.5946 
*END

*D_NET *378 0.00168693
*CONN
*I *9231:B I *D sky130_fd_sc_hd__and2_1
*I *9230:X O *D sky130_fd_sc_hd__a22o_1
*CAP
1 *9231:B 0.000305748
2 *9230:X 0.000305748
3 *9231:B *9230:B2 0.000316901
4 *9231:B *9676:RESET_B 0.000150632
5 *9231:B *381:8 0.000395866
6 *9231:B *786:10 1.02504e-05
7 *9219:B *9231:B 0.00010096
8 *337:339 *9231:B 0.000100823
9 *348:39 *9231:B 0
*RES
1 *9230:X *9231:B 35.9214 
*END

*D_NET *379 0.00127476
*CONN
*I *9232:A I *D sky130_fd_sc_hd__buf_1
*I *9231:X O *D sky130_fd_sc_hd__and2_1
*CAP
1 *9232:A 0.000561489
2 *9231:X 0.000561489
3 *9232:A *9676:RESET_B 3.01126e-05
4 *9232:A *786:10 8.00806e-05
5 *980:DIODE *9232:A 4.15914e-05
6 *371:8 *9232:A 0
*RES
1 *9231:X *9232:A 37.5464 
*END

*D_NET *380 0.000800788
*CONN
*I *9234:B I *D sky130_fd_sc_hd__and2_1
*I *9233:X O *D sky130_fd_sc_hd__a22o_1
*CAP
1 *9234:B 0.000109262
2 *9233:X 0.000109262
3 *337:325 *9234:B 0.0002678
4 *337:339 *9234:B 0
5 *348:45 *9234:B 0.000314465
*RES
1 *9233:X *9234:B 31.6714 
*END

*D_NET *381 0.0117681
*CONN
*I *9235:A I *D sky130_fd_sc_hd__buf_1
*I *984:DIODE I *D sky130_fd_sc_hd__diode_2
*I *9234:X O *D sky130_fd_sc_hd__and2_1
*CAP
1 *9235:A 0.000209937
2 *984:DIODE 0
3 *9234:X 0.000294849
4 *381:22 0.00226539
5 *381:12 0.00420525
6 *381:8 0.00244465
7 *9235:A *695:21 0.000187464
8 *381:8 *963:DIODE 1.5424e-05
9 *381:8 *9218:B2 5.71472e-05
10 *381:8 *9230:A1 2.28499e-05
11 *381:8 *9230:B2 5.7431e-05
12 *381:8 *863:54 0.000115013
13 *381:12 *9254:A 0.0001399
14 *381:22 *695:21 0.000159952
15 *1005:DIODE *381:12 0.000276186
16 *1006:DIODE *381:12 0.000296394
17 *9218:A2 *381:8 5.33005e-05
18 *9231:B *381:8 0.000395866
19 *347:296 *381:8 5.33334e-05
20 *347:296 *381:12 7.1274e-05
21 *369:104 *381:12 4.85746e-05
22 *369:138 *381:8 0.000397918
*RES
1 *9234:X *381:8 18.0679 
2 *381:8 *381:12 39.7768 
3 *381:12 *381:22 42.2768 
4 *381:22 *984:DIODE 9.3 
5 *381:22 *9235:A 13.4429 
*END

*D_NET *382 0.00119885
*CONN
*I *9237:B I *D sky130_fd_sc_hd__and2_1
*I *9236:X O *D sky130_fd_sc_hd__a22o_1
*CAP
1 *9237:B 0.00035016
2 *9236:X 0.00035016
3 *9237:B *9221:A1 0
4 *9237:B *9221:B2 0.000116545
5 *9237:B *9482:B2 6.78055e-06
6 *9237:B *9578:A1 0
7 *9237:B *538:59 0
8 *9237:B *796:20 0
9 *9221:A2 *9237:B 0.000125724
10 *9710:D *9237:B 0.000249486
*RES
1 *9236:X *9237:B 35.35 
*END

*D_NET *383 0.0285643
*CONN
*I *9238:A I *D sky130_fd_sc_hd__clkbuf_1
*I *988:DIODE I *D sky130_fd_sc_hd__diode_2
*I *9237:X O *D sky130_fd_sc_hd__and2_1
*CAP
1 *9238:A 0.000105364
2 *988:DIODE 0
3 *9237:X 0.000811853
4 *383:20 0.000332434
5 *383:14 0.0102235
6 *383:12 0.0108083
7 *383:12 *9481:A 5.52238e-05
8 *383:12 *9498:A2 5.03772e-05
9 *383:12 *9498:B2 0.000398815
10 *383:12 *9499:B2 4.65116e-05
11 *383:12 *9528:A 2.79092e-05
12 *383:12 *9578:A0 0.000246817
13 *383:12 *9579:A 1.72894e-05
14 *383:12 *540:10 5.52238e-05
15 *383:12 *540:349 0
16 *383:12 *541:83 0.000101149
17 *383:12 *794:12 0.000293422
18 *383:14 *9280:D 5.33005e-05
19 *383:14 *9282:A 5.33433e-05
20 *383:14 *9282:C 0.000140846
21 *383:14 *9282:D 7.32955e-05
22 *383:14 *9385:A 9.90367e-05
23 *383:14 *9385:C 5.36152e-05
24 *383:14 *9390:B 0.000221559
25 *383:14 *9390:C 5.33005e-05
26 *383:14 *9394:B 0.000202707
27 *383:14 *9397:B 6.87574e-05
28 *383:14 *9409:A 4.66711e-05
29 *383:14 *9412:A 0.000354098
30 *383:14 *9610:CLK 5.33433e-05
31 *383:14 *9610:RESET_B 0.000177052
32 *383:14 *9656:D 4.63779e-06
33 *383:14 *9657:RESET_B 0.000218371
34 *383:14 *407:163 1.39726e-05
35 *383:14 *410:6 0.000118546
36 *383:14 *493:24 0.000271345
37 *383:14 *588:57 4.34749e-05
38 *383:14 *588:63 0.000414742
39 *383:14 *588:98 9.70943e-05
40 *383:14 *795:6 1.58163e-05
41 *383:14 *795:48 9.77061e-05
42 *383:14 *877:16 9.90367e-05
43 *383:14 *885:8 5.79737e-05
44 *383:14 *889:12 2.14658e-05
45 *383:20 *732:110 0.000466964
46 *9610:D *383:14 2.13481e-06
47 *9685:D *383:12 7.83659e-05
48 *9688:D *383:14 4.76707e-05
49 *187:24 *383:12 0.00121232
50 *372:18 *383:14 5.75882e-05
*RES
1 *9237:X *383:12 40.675 
2 *383:12 *383:14 121.696 
3 *383:14 *383:20 14.8929 
4 *383:20 *988:DIODE 9.3 
5 *383:20 *9238:A 10.9786 
*END

*D_NET *384 0.00136614
*CONN
*I *9240:B I *D sky130_fd_sc_hd__and2_2
*I *9239:X O *D sky130_fd_sc_hd__a22o_1
*CAP
1 *9240:B 0.00044722
2 *9239:X 0.00044722
3 *9240:B *9224:B2 0
4 *983:DIODE *9240:B 0.000273269
5 *344:241 *9240:B 5.52302e-05
6 *348:60 *9240:B 0.000129868
7 *348:64 *9240:B 1.33343e-05
*RES
1 *9239:X *9240:B 34.2964 
*END

*D_NET *385 0.0282188
*CONN
*I *9241:A I *D sky130_fd_sc_hd__clkbuf_1
*I *992:DIODE I *D sky130_fd_sc_hd__diode_2
*I *9240:X O *D sky130_fd_sc_hd__and2_2
*CAP
1 *9241:A 0.000167894
2 *992:DIODE 0
3 *9240:X 0
4 *385:18 0.000427628
5 *385:14 0.00809646
6 *385:12 0.00920843
7 *385:6 0.00472762
8 *385:4 0.00335591
9 *385:14 *695:12 0
10 *385:14 *768:10 0.00209793
11 *991:DIODE *385:6 0.000136951
*RES
1 *9240:X *385:4 9.3 
2 *385:4 *385:6 55.7768 
3 *385:6 *385:12 20.7589 
4 *385:12 *385:14 148.268 
5 *385:14 *385:18 7.5 
6 *385:18 *992:DIODE 9.3 
7 *385:18 *9241:A 12.1036 
*END

*D_NET *386 0.000651488
*CONN
*I *9243:B I *D sky130_fd_sc_hd__and2_1
*I *9242:X O *D sky130_fd_sc_hd__a22o_1
*CAP
1 *9243:B 0.000168726
2 *9242:X 0.000168726
3 *9243:B *9181:B2 4.38511e-05
4 *9243:B *791:96 0.000103267
5 *9243:B *791:108 7.50601e-05
6 *9456:A2 *9243:B 9.18574e-05
*RES
1 *9242:X *9243:B 31.7964 
*END

*D_NET *387 0.011772
*CONN
*I *9244:A I *D sky130_fd_sc_hd__buf_1
*I *9243:X O *D sky130_fd_sc_hd__and2_1
*CAP
1 *9244:A 0.00433076
2 *9243:X 0.00433076
3 *9244:A *1036:DIODE 0.000315225
4 *9244:A *9301:C 5.02092e-05
5 *9244:A *9302:A 0.000296164
6 *9244:A *9601:CLK 0.000322446
7 *9244:A *584:24 0.000519333
8 *9244:A *703:8 9.60337e-06
9 *9244:A *742:12 0.000173553
10 *9244:A *791:108 0
11 *9244:A *895:120 0.00121756
12 *337:165 *9244:A 0.00020634
*RES
1 *9243:X *9244:A 48.0015 
*END

*D_NET *388 0.00485176
*CONN
*I *9246:B I *D sky130_fd_sc_hd__and2_1
*I *9245:X O *D sky130_fd_sc_hd__a22o_1
*CAP
1 *9246:B 0
2 *9245:X 0.00134585
3 *388:16 0.00134585
4 *388:16 *9096:A 4.03318e-05
5 *388:16 *9454:A0 0.00040576
6 *388:16 *610:14 4.73656e-05
7 *388:16 *610:22 0.000125724
8 *388:16 *815:21 0
9 *388:16 *824:8 0.000367396
10 *9123:B *388:16 6.19181e-05
11 *9246:A *388:16 0.00010096
12 *238:14 *388:16 0
13 *244:12 *388:16 0.000143188
14 *344:198 *388:16 1.97695e-05
15 *344:208 *388:16 0.000354105
16 *369:280 *388:16 0.000356028
17 *376:16 *388:16 0.000137515
*RES
1 *9245:X *388:16 46.925 
2 *388:16 *9246:B 9.3 
*END

*D_NET *389 0.00121878
*CONN
*I *9247:A I *D sky130_fd_sc_hd__buf_1
*I *9246:X O *D sky130_fd_sc_hd__and2_1
*CAP
1 *9247:A 0.000392732
2 *9246:X 0.000392732
3 *9247:A *739:190 0
4 *9247:A *856:23 0.00040765
5 *9227:B1 *9247:A 0
6 *238:14 *9247:A 0
7 *337:46 *9247:A 0
8 *369:261 *9247:A 2.56694e-05
*RES
1 *9246:X *9247:A 35.6179 
*END

*D_NET *390 0.00627096
*CONN
*I *9249:B2 I *D sky130_fd_sc_hd__a22o_1
*I *9580:B1 I *D sky130_fd_sc_hd__o21a_1
*I *9248:Y O *D sky130_fd_sc_hd__inv_2
*CAP
1 *9249:B2 0.00154592
2 *9580:B1 1.2252e-05
3 *9248:Y 0.00026379
4 *390:16 0.00182196
5 *9249:B2 *9245:A1 9.60939e-05
6 *9249:B2 *9637:RESET_B 0.000221634
7 *9249:B2 *9827:A 1.97695e-05
8 *9249:B2 *794:18 5.24274e-05
9 *390:16 *9245:B2 2.28589e-05
10 *390:16 *798:31 0.000147121
11 *390:16 *815:21 3.37194e-05
12 *9080:B *9249:B2 0.000266513
13 *9823:A *390:16 9.99644e-06
14 *235:12 *9249:B2 0.000100831
15 *256:14 *9249:B2 0.000266479
16 *276:40 *9249:B2 0.000215069
17 *276:40 *9580:B1 6.58983e-06
18 *276:40 *390:16 2.27416e-05
19 *277:8 *390:16 8.00806e-05
20 *337:197 *9249:B2 1.73088e-05
21 *337:216 *9249:B2 0.0001827
22 *344:138 *9249:B2 4.72917e-05
23 *344:144 *9249:B2 0.000140933
24 *344:198 *9249:B2 0.000295925
25 *344:198 *390:16 0.000241045
26 *344:208 *390:16 0.000139907
*RES
1 *9248:Y *390:16 25.3357 
2 *390:16 *9580:B1 9.72857 
3 *390:16 *9249:B2 47.8536 
*END

*D_NET *391 0.00665839
*CONN
*I *9250:B I *D sky130_fd_sc_hd__and2_1
*I *9249:X O *D sky130_fd_sc_hd__a22o_1
*CAP
1 *9250:B 0.00042209
2 *9249:X 0.000886359
3 *391:26 0.00130845
4 *9250:B *9285:A 0.000205494
5 *9250:B *9310:B 0.000200413
6 *9250:B *731:64 0
7 *9250:B *757:56 0
8 *9250:B *897:16 4.16114e-05
9 *9250:B *897:22 2.15363e-05
10 *391:26 *9181:B2 2.21972e-05
11 *391:26 *9285:A 5.52238e-05
12 *391:26 *9353:A2 6.35864e-05
13 *391:26 *9361:A1 0.000754708
14 *391:26 *9361:A2 1.74352e-05
15 *391:26 *9865:A 0.00014285
16 *391:26 *405:69 3.20942e-05
17 *391:26 *405:80 5.43851e-05
18 *391:26 *735:25 0.000309273
19 *391:26 *791:96 5.7836e-06
20 *391:26 *897:82 0
21 *9309:A2_N *9250:B 0.000128154
22 *9361:A3 *391:26 0.000377511
23 *9593:D *391:26 2.86824e-05
24 *9723:A *391:26 0.00158056
25 *321:80 *9250:B 0
*RES
1 *9249:X *391:26 42.1708 
2 *391:26 *9250:B 23.3357 
*END

*D_NET *392 0.000906523
*CONN
*I *9251:A I *D sky130_fd_sc_hd__buf_1
*I *9250:X O *D sky130_fd_sc_hd__and2_1
*CAP
1 *9251:A 0.000445353
2 *9250:X 0.000445353
3 *9251:A *9304:A 0
4 *9251:A *731:64 0
5 *322:251 *9251:A 1.58163e-05
6 *347:109 *9251:A 0
*RES
1 *9250:X *9251:A 33.1893 
*END

*D_NET *393 0.0164558
*CONN
*I *1004:DIODE I *D sky130_fd_sc_hd__diode_2
*I *9253:A I *D sky130_fd_sc_hd__buf_1
*I *9252:X O *D sky130_fd_sc_hd__and3_1
*CAP
1 *1004:DIODE 2.39947e-05
2 *9253:A 5.34631e-05
3 *9252:X 2.62605e-05
4 *393:16 7.74578e-05
5 *393:14 0.0049778
6 *393:12 0.00501538
7 *393:10 0.00260189
8 *393:8 0.00259056
9 *1004:DIODE *631:12 7.17235e-05
10 *1004:DIODE *706:10 0.000142856
11 *9253:A *631:12 0.00010096
12 *393:8 *487:42 5.52302e-05
13 *393:10 *9389:A 0.00020042
14 *393:10 *9390:C 2.46318e-05
15 *393:10 *9391:A 0.000120728
16 *393:10 *9719:CLK 0.000117135
17 *393:10 *9720:RESET_B 4.25716e-05
18 *393:10 *487:29 3.17148e-05
19 *393:10 *591:70 7.83366e-05
20 *9252:C *393:10 2.26327e-05
21 *9612:D *393:10 8.00806e-05
*RES
1 *9252:X *393:8 14.3357 
2 *393:8 *393:10 50.2589 
3 *393:10 *393:12 0.535714 
4 *393:12 *393:14 91.1518 
5 *393:14 *393:16 4.5 
6 *393:16 *9253:A 10.675 
7 *393:16 *1004:DIODE 10.6571 
*END

*D_NET *394 0.0157306
*CONN
*I *9255:A I *D sky130_fd_sc_hd__clkbuf_1
*I *1007:DIODE I *D sky130_fd_sc_hd__diode_2
*I *9254:X O *D sky130_fd_sc_hd__and3_1
*CAP
1 *9255:A 0.000137741
2 *1007:DIODE 0
3 *9254:X 0
4 *394:10 0.000137741
5 *394:8 0.00770846
6 *394:6 0.00770846
7 *394:8 *9715:D 0
8 *394:8 *9715:RESET_B 2.79092e-05
9 *394:8 *400:8 0
10 *979:DIODE *394:8 1.02504e-05
*RES
1 *9254:X *394:6 13.8 
2 *394:6 *394:8 141.893 
3 *394:8 *394:10 4.5 
4 *394:10 *1007:DIODE 9.3 
5 *394:10 *9255:A 11.6929 
*END

*D_NET *395 0.000405794
*CONN
*I *9257:A I *D sky130_fd_sc_hd__buf_1
*I *9256:X O *D sky130_fd_sc_hd__and3_1
*CAP
1 *9257:A 8.71317e-05
2 *9256:X 8.71317e-05
3 *9264:B *9257:A 7.97054e-05
4 *347:38 *9257:A 0.000110234
5 *369:31 *9257:A 4.15914e-05
*RES
1 *9256:X *9257:A 30.3143 
*END

*D_NET *396 0.00432619
*CONN
*I *9259:A I *D sky130_fd_sc_hd__buf_1
*I *9258:X O *D sky130_fd_sc_hd__and3_1
*CAP
1 *9259:A 0
2 *9258:X 0.00208459
3 *396:14 0.00208459
4 *1011:DIODE *396:14 2.34204e-05
5 *1023:DIODE *396:14 0.00013359
*RES
1 *9258:X *396:14 43.4964 
2 *396:14 *9259:A 9.3 
*END

*D_NET *397 0.00819194
*CONN
*I *9261:A I *D sky130_fd_sc_hd__clkbuf_1
*I *9260:X O *D sky130_fd_sc_hd__and3_1
*CAP
1 *9261:A 0.00103682
2 *9260:X 1.41579e-05
3 *397:10 0.00372863
4 *397:6 0.00270597
5 *9261:A *696:30 0.000169905
6 *9261:A *732:110 0.000446929
7 *9260:B *397:10 5.37963e-05
8 *9260:C *397:6 3.57366e-05
*RES
1 *9260:X *397:6 9.72857 
2 *397:6 *397:10 41.8304 
3 *397:10 *9261:A 34.4875 
*END

*D_NET *398 0.00902719
*CONN
*I *9263:A I *D sky130_fd_sc_hd__clkbuf_1
*I *9262:X O *D sky130_fd_sc_hd__and3_1
*CAP
1 *9263:A 0.00118422
2 *9262:X 2.23854e-05
3 *398:10 0.00379408
4 *398:6 0.00263225
5 *9263:A *696:30 2.34204e-05
6 *9263:A *716:10 0.000190199
7 *9263:A *720:10 0
8 *9263:A *732:110 0.000731087
9 *398:6 *9262:A 0
10 *398:6 *894:72 0
11 *398:10 *893:12 0.000449539
*RES
1 *9262:X *398:6 9.72857 
2 *398:6 *398:10 41.4196 
3 *398:10 *9263:A 38.1304 
*END

*D_NET *399 0.00112952
*CONN
*I *9265:A I *D sky130_fd_sc_hd__buf_1
*I *9264:X O *D sky130_fd_sc_hd__and3_1
*CAP
1 *9265:A 0.000503732
2 *9264:X 0.000503732
3 *9265:A *9549:A 0
4 *9265:A *9759:A 0.000122055
5 *9265:A *710:8 0
6 *9265:A *755:14 0
*RES
1 *9264:X *9265:A 35.2071 
*END

*D_NET *400 0.0168278
*CONN
*I *9267:A I *D sky130_fd_sc_hd__buf_1
*I *1022:DIODE I *D sky130_fd_sc_hd__diode_2
*I *9266:X O *D sky130_fd_sc_hd__and3_1
*CAP
1 *9267:A 0.000164076
2 *1022:DIODE 0
3 *9266:X 0
4 *400:12 0.000387923
5 *400:8 0.00656863
6 *400:6 0.00634478
7 *400:8 *812:12 5.80706e-06
8 *347:10 *400:8 0.00283567
9 *347:12 *400:8 0.000193585
10 *347:14 *400:8 0.000267266
11 *347:16 *400:8 6.0038e-05
12 *371:8 *400:8 0
13 *394:8 *400:8 0
*RES
1 *9266:X *400:6 13.8 
2 *400:6 *400:8 131.268 
3 *400:8 *400:12 7.08929 
4 *400:12 *1022:DIODE 9.3 
5 *400:12 *9267:A 12.1036 
*END

*D_NET *401 0.00854528
*CONN
*I *9269:A I *D sky130_fd_sc_hd__buf_1
*I *9268:X O *D sky130_fd_sc_hd__and3_1
*CAP
1 *9269:A 0.000641924
2 *9268:X 0
3 *401:8 0.00301896
4 *401:4 0.00237704
5 *401:8 *729:56 0.00214941
6 *1010:DIODE *401:8 8.66063e-05
7 *9268:B *401:8 0.000144773
8 *347:162 *401:8 0.000126566
*RES
1 *9268:X *401:4 9.3 
2 *401:4 *401:8 44.5982 
3 *401:8 *9269:A 19.8982 
*END

*D_NET *402 0.00300811
*CONN
*I *9271:A I *D sky130_fd_sc_hd__dlymetal6s2s_1
*I *9270:X O *D sky130_fd_sc_hd__and3_1
*CAP
1 *9271:A 0.00133259
2 *9270:X 0.00133259
3 *9271:A *727:8 0.000207098
4 *1027:DIODE *9271:A 3.48705e-05
5 *9270:C *9271:A 0.00010096
*RES
1 *9270:X *9271:A 48.35 
*END

*D_NET *403 0.00778185
*CONN
*I *9273:A I *D sky130_fd_sc_hd__clkbuf_1
*I *9272:X O *D sky130_fd_sc_hd__and3_1
*CAP
1 *9273:A 0.000962643
2 *9272:X 0
3 *403:8 0.00365269
4 *403:4 0.00269005
5 *9273:A *9889:A 3.92757e-05
6 *9273:A *696:30 3.01126e-05
7 *9273:A *732:110 0.00015304
8 *1028:DIODE *403:8 2.65105e-05
9 *9272:B *403:8 5.33005e-05
10 *347:214 *403:8 0.000174232
*RES
1 *9272:X *403:4 9.3 
2 *403:4 *403:8 42.2411 
3 *403:8 *9273:A 30.8446 
*END

*D_NET *404 0.0337922
*CONN
*I *1030:DIODE I *D sky130_fd_sc_hd__diode_2
*I *9350:B I *D sky130_fd_sc_hd__nand2_1
*I *1053:DIODE I *D sky130_fd_sc_hd__diode_2
*I *9427:B I *D sky130_fd_sc_hd__nand2_2
*I *1062:DIODE I *D sky130_fd_sc_hd__diode_2
*I *9322:C I *D sky130_fd_sc_hd__and3_1
*I *1046:DIODE I *D sky130_fd_sc_hd__diode_2
*I *9275:B I *D sky130_fd_sc_hd__and2_2
*I *9274:Y O *D sky130_fd_sc_hd__nand2_4
*CAP
1 *1030:DIODE 0
2 *9350:B 0
3 *1053:DIODE 0.00010375
4 *9427:B 0
5 *1062:DIODE 9.31555e-05
6 *9322:C 0.000214087
7 *1046:DIODE 0.000229131
8 *9275:B 5.48524e-05
9 *9274:Y 0.000120671
10 *404:79 0.00081382
11 *404:75 0.00052604
12 *404:71 0.000574021
13 *404:65 0.00067006
14 *404:63 0.000296148
15 *404:50 0.000461679
16 *404:42 0.00216252
17 *404:14 0.00485806
18 *404:12 0.0029272
19 *404:10 0.00597376
20 *404:8 0.00602802
21 *1046:DIODE *1067:DIODE 0
22 *1046:DIODE *9438:S 5.26091e-05
23 *1046:DIODE *601:14 0
24 *1046:DIODE *601:49 0
25 *1046:DIODE *602:21 0
26 *1046:DIODE *864:6 6.78055e-06
27 *1062:DIODE *518:31 0.000178847
28 *1062:DIODE *730:90 2.44318e-05
29 *1062:DIODE *730:98 5.17614e-05
30 *9275:B *9356:B1 0
31 *9275:B *736:28 1.92789e-05
32 *9322:C *443:23 9.99644e-06
33 *9322:C *720:30 0.000140913
34 *404:14 *9367:A 0.00015234
35 *404:14 *9368:B 0
36 *404:14 *9398:A 0
37 *404:14 *9398:B 7.83659e-05
38 *404:14 *9398:C 5.03694e-05
39 *404:14 *9401:A 0
40 *404:14 *9604:RESET_B 0.000139408
41 *404:14 *9606:CLK 0
42 *404:14 *9606:RESET_B 0
43 *404:14 *9766:A 0
44 *404:14 *9808:A 0
45 *404:14 *470:12 0.000127971
46 *404:14 *493:24 0
47 *404:14 *587:10 0
48 *404:14 *587:36 0
49 *404:14 *587:66 0
50 *404:14 *745:71 0.000106542
51 *404:14 *748:67 0.00014683
52 *404:14 *748:79 0
53 *404:14 *749:159 0.000737416
54 *404:14 *749:165 0
55 *404:14 *749:197 0
56 *404:14 *889:12 0
57 *404:14 *889:29 0.000103275
58 *404:14 *890:10 0
59 *404:42 *1221:DIODE 2.27416e-05
60 *404:42 *9089:B 0.000342302
61 *404:42 *9288:B 8.90314e-05
62 *404:42 *584:98 1.92789e-05
63 *404:42 *801:18 9.79345e-05
64 *404:50 *405:10 0.000268581
65 *404:50 *405:42 4.56437e-05
66 *404:50 *736:28 6.79057e-05
67 *404:50 *870:29 1.08359e-05
68 *404:63 *584:24 0.0001471
69 *404:63 *600:44 0
70 *404:63 *736:28 0
71 *404:63 *870:29 0
72 *404:63 *871:10 5.75728e-05
73 *404:65 *584:24 0.000140878
74 *404:65 *871:10 7.62621e-05
75 *404:71 *9186:A1 0.00018372
76 *404:71 *9195:A1 0.000357755
77 *404:71 *9434:S 3.69047e-06
78 *404:71 *9625:SET_B 0
79 *404:71 *584:24 1.02504e-05
80 *404:71 *584:38 4.32309e-05
81 *404:71 *868:14 0.000128154
82 *404:71 *871:10 5.96065e-05
83 *404:75 *9195:A1 6.9253e-05
84 *404:75 *9195:B2 0.000146474
85 *404:79 *9194:A 0
86 *404:79 *9195:A1 0.000230878
87 *404:79 *9195:B2 0.000163961
88 *404:79 *9438:S 2.1892e-05
89 *404:79 *601:66 0
90 *404:79 *720:26 0.000145753
91 *9187:C1 *1062:DIODE 0.000262504
92 *9190:A1 *404:71 0
93 *9195:C1 *404:79 2.14474e-05
94 *9204:A1 *404:71 0
95 *9250:A *404:42 4.01768e-05
96 *9275:A *404:63 0.000115357
97 *9594:D *404:63 0
98 *9606:D *404:14 0.000270243
99 *9613:D *404:14 6.97972e-05
100 *321:133 *404:42 9.0145e-05
101 *322:28 *404:42 0.000140846
102 *322:316 *404:42 0.00040381
103 *335:86 *404:79 0
104 *335:101 *404:71 0
105 *341:53 *404:71 0.000119425
106 *342:16 *404:79 0.000261227
107 *347:103 *1053:DIODE 0.000137983
108 *347:143 *404:42 0.000674447
*RES
1 *9274:Y *404:8 15.1571 
2 *404:8 *404:10 109.027 
3 *404:10 *404:12 1.35714 
4 *404:12 *404:14 62.7411 
5 *404:14 *404:42 41.1071 
6 *404:42 *404:50 13.3214 
7 *404:50 *9275:B 10.2643 
8 *404:50 *404:63 9.78571 
9 *404:63 *404:65 1.94643 
10 *404:65 *404:71 17.0179 
11 *404:71 *404:75 6.44643 
12 *404:75 *404:79 9.16071 
13 *404:79 *1046:DIODE 17.8 
14 *404:79 *9322:C 16.6839 
15 *404:75 *1062:DIODE 16.8 
16 *404:71 *9427:B 9.3 
17 *404:65 *1053:DIODE 15.1571 
18 *404:63 *9350:B 13.8 
19 *404:42 *1030:DIODE 9.3 
*END

*D_NET *405 0.0087253
*CONN
*I *9285:A I *D sky130_fd_sc_hd__nor2_2
*I *9276:B1 I *D sky130_fd_sc_hd__a21o_1
*I *9361:B1 I *D sky130_fd_sc_hd__a31o_1
*I *9352:B1 I *D sky130_fd_sc_hd__a31o_1
*I *9358:B1 I *D sky130_fd_sc_hd__a31o_1
*I *9355:B1 I *D sky130_fd_sc_hd__a31o_1
*I *9275:X O *D sky130_fd_sc_hd__and2_2
*CAP
1 *9285:A 0.000376206
2 *9276:B1 0
3 *9361:B1 0
4 *9352:B1 2.23854e-05
5 *9358:B1 0
6 *9355:B1 0.000150184
7 *9275:X 0.000173572
8 *405:80 0.000770419
9 *405:69 0.000768278
10 *405:42 0.000935093
11 *405:14 0.000221261
12 *405:10 0.000783292
13 *9285:A *9159:A 0.000178774
14 *9285:A *9309:B1 0.000137983
15 *9285:A *9603:RESET_B 1.69115e-05
16 *9285:A *9865:A 4.43256e-05
17 *9285:A *406:10 1.92789e-05
18 *9285:A *731:64 0
19 *9285:A *749:98 0.000310292
20 *9285:A *897:22 0.000144773
21 *9285:A *897:26 1.54142e-05
22 *9355:B1 *9358:A2 3.17148e-05
23 *9355:B1 *736:62 0.000148196
24 *405:10 *736:28 9.99644e-06
25 *405:10 *870:29 0.00012401
26 *405:14 *9089:B 0.000260574
27 *405:42 *9351:B1_N 0.000191984
28 *405:42 *757:50 8.50152e-05
29 *405:42 *800:14 8.1004e-05
30 *405:42 *870:29 0.000594125
31 *405:69 *9352:A2 3.33634e-05
32 *405:69 *9353:B1 0.000251148
33 *405:69 *9361:A1 0.000320424
34 *405:69 *897:82 2.8643e-05
35 *405:80 *9353:B1 0
36 *405:80 *9361:A1 1.56e-05
37 *405:80 *9361:A2 0.000186662
38 *405:80 *9621:CLK 0
39 *9158:A *405:42 0
40 *9250:B *9285:A 0.000205494
41 *9309:A2_N *9285:A 0.000128154
42 *9352:A3 *405:69 7.43578e-06
43 *9361:A3 *405:80 0.000132967
44 *9723:A *405:69 6.80387e-06
45 *321:8 *9355:B1 3.99614e-06
46 *321:15 *9355:B1 3.18676e-05
47 *321:59 *405:69 1.94879e-05
48 *321:120 *9355:B1 3.97543e-05
49 *322:28 *405:14 0.000262504
50 *391:26 *9285:A 5.52238e-05
51 *391:26 *405:69 3.20942e-05
52 *391:26 *405:80 5.43851e-05
53 *404:50 *405:10 0.000268581
54 *404:50 *405:42 4.56437e-05
*RES
1 *9275:X *405:10 17.2107 
2 *405:10 *405:14 7.08929 
3 *405:14 *9355:B1 21.6393 
4 *405:14 *9358:B1 9.3 
5 *405:10 *405:42 16.3036 
6 *405:42 *9352:B1 9.72857 
7 *405:42 *405:69 19.8026 
8 *405:69 *9361:B1 9.3 
9 *405:69 *405:80 7.44643 
10 *405:80 *9276:B1 9.3 
11 *405:80 *9285:A 29.7643 
*END

*D_NET *406 0.0054797
*CONN
*I *9398:A I *D sky130_fd_sc_hd__or3_1
*I *9414:A I *D sky130_fd_sc_hd__or3_1
*I *9277:A I *D sky130_fd_sc_hd__clkbuf_4
*I *9276:X O *D sky130_fd_sc_hd__a21o_1
*CAP
1 *9398:A 0.000731157
2 *9414:A 0
3 *9277:A 0.000214474
4 *9276:X 0.000957132
5 *406:27 0.00102771
6 *406:10 0.00146815
7 *9277:A *407:8 0.000271352
8 *9398:A *9398:C 1.02504e-05
9 *9398:A *9399:A 0
10 *9398:A *9401:B 0
11 *9398:A *9415:A 9.90431e-05
12 *9398:A *9418:B 7.03295e-05
13 *9398:A *9421:A2 5.52302e-05
14 *9398:A *9614:CLK 0
15 *406:10 *9423:A 3.5707e-05
16 *406:10 *9423:B 1.41029e-05
17 *406:10 *9424:A 3.92854e-05
18 *406:10 *9621:CLK 1.72798e-05
19 *406:10 *9865:A 4.46231e-06
20 *406:10 *412:16 0
21 *406:10 *748:27 0.000102207
22 *406:10 *748:41 7.61932e-05
23 *406:10 *748:163 0
24 *406:10 *881:12 0.000125731
25 *406:27 *9414:C 5.80706e-06
26 *406:27 *9423:A 1.19402e-05
27 *406:27 *407:23 4.88699e-05
28 *406:27 *511:12 3.84478e-05
29 *406:27 *748:163 0
30 *9285:A *406:10 1.92789e-05
31 *9621:D *406:10 3.55552e-05
32 *404:14 *9398:A 0
*RES
1 *9276:X *406:10 27.1393 
2 *406:10 *9277:A 17.6214 
3 *406:10 *406:27 10.4464 
4 *406:27 *9414:A 9.3 
5 *406:27 *9398:A 31.4607 
*END

*D_NET *407 0.0176746
*CONN
*I *9366:B I *D sky130_fd_sc_hd__or3b_1
*I *9382:A I *D sky130_fd_sc_hd__or3_1
*I *9386:A I *D sky130_fd_sc_hd__or3b_1
*I *9390:A I *D sky130_fd_sc_hd__or3_1
*I *9394:B I *D sky130_fd_sc_hd__or3b_1
*I *9374:A I *D sky130_fd_sc_hd__or3_1
*I *9370:B I *D sky130_fd_sc_hd__or3b_1
*I *9378:B I *D sky130_fd_sc_hd__or3b_1
*I *9284:B I *D sky130_fd_sc_hd__nor3_1
*I *9326:B I *D sky130_fd_sc_hd__or3_1
*I *9421:C1 I *D sky130_fd_sc_hd__a211o_1
*I *9402:B I *D sky130_fd_sc_hd__or3b_1
*I *9406:B I *D sky130_fd_sc_hd__or3b_1
*I *9410:B I *D sky130_fd_sc_hd__or3b_1
*I *9418:B I *D sky130_fd_sc_hd__or3b_1
*I *9423:A I *D sky130_fd_sc_hd__or2_1
*I *9277:X O *D sky130_fd_sc_hd__clkbuf_4
*CAP
1 *9366:B 0
2 *9382:A 0
3 *9386:A 0.000186486
4 *9390:A 0
5 *9394:B 0.000305313
6 *9374:A 0.000421846
7 *9370:B 0
8 *9378:B 0
9 *9284:B 0
10 *9326:B 0.000234357
11 *9421:C1 3.40403e-05
12 *9402:B 0.00021459
13 *9406:B 0
14 *9410:B 0.000242307
15 *9418:B 0.000240508
16 *9423:A 0.000176762
17 *9277:X 0
18 *407:163 0.000335481
19 *407:157 0.000527476
20 *407:151 0.00067173
21 *407:127 0.000602186
22 *407:123 0.000617226
23 *407:114 0.000622384
24 *407:104 0.000991652
25 *407:84 0.000783992
26 *407:44 0.000533224
27 *407:42 0.000940214
28 *407:38 0.000528953
29 *407:23 0.0005472
30 *407:8 0.000628118
31 *407:4 0.00119975
32 *9326:B *9284:C 0.000203603
33 *9326:B *9326:A 3.76337e-05
34 *9326:B *9326:C 1.02821e-05
35 *9326:B *587:42 1.32552e-05
36 *9374:A *9375:A 1.74352e-05
37 *9374:A *9608:CLK 0.000142856
38 *9374:A *731:16 3.06878e-06
39 *9374:A *748:118 0.000176803
40 *9374:A *882:10 0.00012354
41 *9386:A *9279:B 0.000168224
42 *9386:A *9391:A 1.31516e-05
43 *9386:A *487:14 0.000180171
44 *9394:B *9280:A 6.67033e-05
45 *9394:B *9280:C 5.67624e-05
46 *9394:B *9280:D 3.48001e-05
47 *9394:B *9390:B 0
48 *9394:B *9390:C 4.43824e-05
49 *9394:B *410:6 1.92789e-05
50 *9394:B *748:79 0.000152202
51 *9402:B *9403:A 4.72818e-05
52 *9402:B *499:20 3.40043e-05
53 *9410:B *9406:A 5.33433e-05
54 *9410:B *9407:A 8.46507e-06
55 *9410:B *9409:B 3.30237e-05
56 *9418:B *9414:B 0.0001827
57 *9418:B *9415:A 3.80079e-05
58 *9418:B *9421:A2 0.00018372
59 *9418:B *9618:RESET_B 5.52238e-05
60 *9421:C1 *412:16 2.21972e-05
61 *9423:A *412:16 4.25716e-05
62 *9423:A *731:28 1.21258e-05
63 *9423:A *881:12 4.87953e-05
64 *9423:A *881:27 7.43578e-06
65 *407:23 *9414:C 0
66 *407:23 *9421:A2 1.88048e-05
67 *407:23 *412:16 0.000182489
68 *407:38 *9282:A 0
69 *407:38 *9421:A2 5.38886e-05
70 *407:38 *412:16 7.80929e-05
71 *407:42 *9282:A 0
72 *407:42 *9405:B 5.66157e-05
73 *407:42 *9421:A1 7.6644e-05
74 *407:42 *9614:CLK 0
75 *407:42 *412:10 9.97744e-05
76 *407:42 *412:16 1.17921e-05
77 *407:42 *499:14 6.66939e-05
78 *407:42 *502:14 0
79 *407:42 *877:16 0
80 *407:44 *9404:A 9.22103e-06
81 *407:44 *9404:B 0.000102197
82 *407:44 *9406:A 4.43256e-05
83 *407:44 *499:20 2.59355e-05
84 *407:44 *502:14 1.39726e-05
85 *407:84 *9284:A 5.62995e-05
86 *407:84 *9284:C 0
87 *407:84 *9326:C 0
88 *407:84 *9422:A2 5.01213e-05
89 *407:84 *9606:CLK 6.07532e-05
90 *407:84 *412:16 0
91 *407:84 *435:21 0
92 *407:84 *470:12 0
93 *407:84 *587:36 1.65304e-05
94 *407:84 *587:42 2.65105e-05
95 *407:84 *587:66 3.15101e-05
96 *407:84 *881:27 0
97 *407:104 *9278:B 0
98 *407:104 *9366:A 0.000124366
99 *407:104 *9366:C_N 3.37729e-05
100 *407:104 *9367:A 5.23142e-05
101 *407:114 *9366:A 2.79092e-05
102 *407:114 *9369:B 0.000191362
103 *407:114 *470:23 0.000262504
104 *407:114 *472:8 5.33882e-05
105 *407:114 *748:67 0
106 *407:123 *9369:B 7.49387e-06
107 *407:123 *9378:C_N 1.92789e-05
108 *407:127 *9370:C_N 0.000312736
109 *407:127 *9375:A 3.06406e-05
110 *407:127 *882:10 0
111 *407:151 *9370:C_N 0.000128161
112 *407:151 *9372:B 0.000114759
113 *407:151 *9375:A 1.46624e-05
114 *407:151 *9378:C_N 0
115 *407:151 *9382:C 6.32633e-05
116 *407:151 *481:23 0
117 *407:157 *9383:A 7.77652e-05
118 *407:157 *487:14 0
119 *407:163 *9390:B 6.05161e-06
120 *407:163 *9390:C 7.43578e-06
121 *9277:A *407:8 0.000271352
122 *9398:A *9418:B 7.03295e-05
123 *9608:D *9374:A 3.65069e-05
124 *9608:D *407:127 0.00014758
125 *9608:D *407:151 9.88232e-05
126 *9615:D *9402:B 9.90431e-05
127 *347:234 *9386:A 0
128 *347:234 *407:157 0.000104382
129 *347:234 *407:163 5.41797e-06
130 *369:402 *9394:B 9.91086e-05
131 *383:14 *9394:B 0.000202707
132 *383:14 *407:163 1.39726e-05
133 *406:10 *9423:A 3.5707e-05
134 *406:27 *9423:A 1.19402e-05
135 *406:27 *407:23 4.88699e-05
*RES
1 *9277:X *407:4 9.3 
2 *407:4 *407:8 8.73214 
3 *407:8 *9423:A 17.2286 
4 *407:8 *407:23 5.89286 
5 *407:23 *9418:B 19.3 
6 *407:23 *407:38 2.09821 
7 *407:38 *407:42 12.3661 
8 *407:42 *407:44 3.82143 
9 *407:44 *9410:B 12.3 
10 *407:44 *9406:B 9.3 
11 *407:42 *9402:B 12.3 
12 *407:38 *9421:C1 14.6125 
13 *407:4 *407:84 18.6071 
14 *407:84 *9326:B 13.2643 
15 *407:84 *9284:B 9.3 
16 *407:4 *407:104 8.14286 
17 *407:104 *407:114 18.6964 
18 *407:114 *9378:B 9.3 
19 *407:114 *407:123 5.44643 
20 *407:123 *407:127 9.48214 
21 *407:127 *9370:B 9.3 
22 *407:127 *9374:A 25.425 
23 *407:123 *407:151 12.5179 
24 *407:151 *407:157 10.7232 
25 *407:157 *407:163 5.3125 
26 *407:163 *9394:B 26.5857 
27 *407:163 *9390:A 9.3 
28 *407:157 *9386:A 17.8625 
29 *407:151 *9382:A 9.3 
30 *407:104 *9366:B 9.3 
*END

*D_NET *408 0.00303678
*CONN
*I *9280:C I *D sky130_fd_sc_hd__or4_1
*I *9377:A I *D sky130_fd_sc_hd__or2_1
*I *9278:X O *D sky130_fd_sc_hd__or4_1
*CAP
1 *9280:C 0.000223959
2 *9377:A 0.000126516
3 *9278:X 0.000346231
4 *408:10 0.000696706
5 *9280:C *9280:B 3.17067e-05
6 *9280:C *808:33 0
7 *9377:A *9377:B 6.75704e-05
8 *9377:A *470:33 8.25843e-06
9 *408:10 *9278:A 6.26673e-05
10 *408:10 *9278:B 1.65169e-05
11 *408:10 *9278:D 6.94441e-05
12 *408:10 *470:29 0.000320024
13 *9394:B *9280:C 5.67624e-05
14 *347:234 *9280:C 0
15 *347:234 *408:10 0
16 *369:402 *9280:C 0.000358861
17 *369:402 *408:10 0.000651561
*RES
1 *9278:X *408:10 23.0679 
2 *408:10 *9377:A 15.9964 
3 *408:10 *9280:C 19.425 
*END

*D_NET *409 0.000400083
*CONN
*I *9280:D I *D sky130_fd_sc_hd__or4_1
*I *9279:X O *D sky130_fd_sc_hd__or4_1
*CAP
1 *9280:D 5.51608e-05
2 *9279:X 5.51608e-05
3 *9280:D *9280:B 0.000100831
4 *9280:D *808:33 0.000100831
5 *9394:B *9280:D 3.48001e-05
6 *383:14 *9280:D 5.33005e-05
*RES
1 *9279:X *9280:D 29.475 
*END

*D_NET *410 0.00306811
*CONN
*I *9401:A I *D sky130_fd_sc_hd__or2_1
*I *9282:C I *D sky130_fd_sc_hd__or4_2
*I *9280:X O *D sky130_fd_sc_hd__or4_1
*CAP
1 *9401:A 0.000223534
2 *9282:C 0.000305428
3 *9280:X 0.000444429
4 *410:6 0.000973391
5 *9282:C *9282:A 3.18676e-05
6 *9282:C *9282:D 0
7 *9282:C *412:10 9.71197e-05
8 *9401:A *9398:C 0
9 *9401:A *9399:A 7.77751e-05
10 *9401:A *9614:CLK 0
11 *9401:A *808:33 0.000271345
12 *410:6 *9397:A 9.90431e-05
13 *410:6 *9397:B 4.72818e-05
14 *410:6 *9398:C 5.52238e-05
15 *410:6 *889:12 0.000119193
16 *410:6 *889:16 4.38128e-05
17 *9394:B *410:6 1.92789e-05
18 *383:14 *9282:C 0.000140846
19 *383:14 *410:6 0.000118546
20 *404:14 *9401:A 0
*RES
1 *9280:X *410:6 18.05 
2 *410:6 *9282:C 15.1929 
3 *410:6 *9401:A 23.1393 
*END

*D_NET *411 0.00028111
*CONN
*I *9282:D I *D sky130_fd_sc_hd__or4_2
*I *9281:X O *D sky130_fd_sc_hd__or3_1
*CAP
1 *9282:D 8.44725e-05
2 *9281:X 8.44725e-05
3 *9282:D *9409:A 1.97695e-05
4 *9282:D *877:16 1.91004e-05
5 *9282:C *9282:D 0
6 *383:14 *9282:D 7.32955e-05
*RES
1 *9281:X *9282:D 20.6893 
*END

*D_NET *412 0.00484864
*CONN
*I *9420:A I *D sky130_fd_sc_hd__nor2_1
*I *9283:B I *D sky130_fd_sc_hd__nor2_1
*I *9422:A1 I *D sky130_fd_sc_hd__o21a_1
*I *9326:C I *D sky130_fd_sc_hd__or3_1
*I *9282:X O *D sky130_fd_sc_hd__or4_2
*CAP
1 *9420:A 9.86998e-05
2 *9283:B 2.52229e-05
3 *9422:A1 0.000144314
4 *9326:C 0.000258832
5 *9282:X 0.000177604
6 *412:18 0.000537837
7 *412:16 0.00067651
8 *412:10 0.000792901
9 *9283:B *881:27 5.52238e-05
10 *9326:C *9284:C 0.000190844
11 *9326:C *9314:C 6.04072e-05
12 *9326:C *9326:A 1.24368e-05
13 *9326:C *413:10 2.6949e-05
14 *9326:C *435:21 0.000102458
15 *9326:C *587:42 5.76659e-05
16 *9326:C *881:27 1.87955e-05
17 *9420:A *9420:B 2.32013e-05
18 *9420:A *9421:A1 0
19 *9420:A *9421:B1 5.52302e-05
20 *9420:A *9614:CLK 3.57366e-05
21 *9422:A1 *9422:A2 5.52238e-05
22 *9422:A1 *9423:B 0.000183726
23 *9422:A1 *748:41 0.000363333
24 *412:10 *9421:A1 6.91157e-05
25 *412:10 *9614:CLK 6.76272e-05
26 *412:10 *499:14 7.6644e-05
27 *412:16 *9401:B 0
28 *412:16 *9421:A1 9.25014e-06
29 *412:16 *9614:CLK 2.8266e-06
30 *412:18 *9423:B 0
31 *412:18 *413:10 2.83916e-05
32 *412:18 *881:27 4.40142e-05
33 *9282:C *412:10 9.71197e-05
34 *9314:A *9326:C 5.33005e-05
35 *9326:B *9326:C 1.02821e-05
36 *9421:C1 *412:16 2.21972e-05
37 *9423:A *412:16 4.25716e-05
38 *406:10 *412:16 0
39 *407:23 *412:16 0.000182489
40 *407:38 *412:16 7.80929e-05
41 *407:42 *412:10 9.97744e-05
42 *407:42 *412:16 1.17921e-05
43 *407:84 *9326:C 0
44 *407:84 *412:16 0
*RES
1 *9282:X *412:10 18.2107 
2 *412:10 *412:16 11.1071 
3 *412:16 *412:18 2.25 
4 *412:18 *9326:C 19.6214 
5 *412:18 *9422:A1 18.05 
6 *412:16 *9283:B 14.3357 
7 *412:10 *9420:A 15.4786 
*END

*D_NET *413 0.00494835
*CONN
*I *9363:A I *D sky130_fd_sc_hd__or2_1
*I *9284:C I *D sky130_fd_sc_hd__nor3_1
*I *9285:B I *D sky130_fd_sc_hd__nor2_2
*I *9283:Y O *D sky130_fd_sc_hd__nor2_1
*CAP
1 *9363:A 0.000496337
2 *9284:C 7.25429e-05
3 *9285:B 0.000622056
4 *9283:Y 0.000154436
5 *413:12 0.000797144
6 *413:10 0.000753318
7 *9284:C *9326:A 0
8 *9284:C *587:42 1.74352e-05
9 *9285:B *9309:B1 0.000140669
10 *9285:B *9311:A 0.000142856
11 *9285:B *9312:B 0.000153047
12 *9285:B *9314:C 9.49379e-05
13 *9285:B *9326:A 3.34295e-05
14 *9285:B *9597:CLK 0
15 *9285:B *435:8 1.40849e-05
16 *9285:B *446:12 0
17 *9285:B *749:98 1.97695e-05
18 *9363:A *9363:B 4.18895e-05
19 *9363:A *435:21 0.000443654
20 *9363:A *748:41 7.68643e-05
21 *413:10 *9423:B 7.83659e-05
22 *413:10 *9424:A 0
23 *413:10 *435:21 5.80706e-06
24 *413:10 *731:28 9.90431e-05
25 *413:12 *9314:C 5.1588e-05
26 *413:12 *9326:A 0.000133482
27 *413:12 *9424:A 0
28 *413:12 *435:21 5.58081e-05
29 *9326:B *9284:C 0.000203603
30 *9326:C *9284:C 0.000190844
31 *9326:C *413:10 2.6949e-05
32 *407:84 *9284:C 0
33 *412:18 *413:10 2.83916e-05
*RES
1 *9283:Y *413:10 16.9964 
2 *413:10 *413:12 2.25 
3 *413:12 *9285:B 25.1393 
4 *413:12 *9284:C 16.4071 
5 *413:10 *9363:A 20.9429 
*END

*D_NET *414 0.00962573
*CONN
*I *9313:B1 I *D sky130_fd_sc_hd__o21a_1
*I *9310:C I *D sky130_fd_sc_hd__and3b_1
*I *9306:B I *D sky130_fd_sc_hd__and4_1
*I *9288:B I *D sky130_fd_sc_hd__and4_1
*I *9292:B I *D sky130_fd_sc_hd__and4_1
*I *9297:B I *D sky130_fd_sc_hd__and4_1
*I *9301:B I *D sky130_fd_sc_hd__and4_1
*I *9285:Y O *D sky130_fd_sc_hd__nor2_2
*CAP
1 *9313:B1 0.000423522
2 *9310:C 0
3 *9306:B 0
4 *9288:B 0.000737731
5 *9292:B 0.000210977
6 *9297:B 3.89241e-05
7 *9301:B 0.000109179
8 *9285:Y 0
9 *414:83 0.00050797
10 *414:52 0.000999201
11 *414:41 0.00053941
12 *414:24 0.00101873
13 *414:14 0.00085718
14 *414:6 0.000482075
15 *9288:B *1033:DIODE 0.000183984
16 *9288:B *9297:D 7.00418e-05
17 *9288:B *9598:CLK 7.83366e-05
18 *9288:B *745:64 0
19 *9288:B *745:71 0
20 *9288:B *891:59 0
21 *9288:B *891:99 1.24368e-05
22 *9288:B *894:50 5.33072e-05
23 *9292:B *9290:C 0
24 *9292:B *9292:C 5.33005e-05
25 *9292:B *9292:D 1.02936e-05
26 *9292:B *9293:A 5.80706e-06
27 *9292:B *9295:A 7.43578e-06
28 *9292:B *9297:D 8.49829e-05
29 *9292:B *586:14 0
30 *9292:B *586:16 0
31 *9292:B *894:50 0.000209772
32 *9297:B *9294:D 0
33 *9297:B *421:10 3.08382e-06
34 *9301:B *9301:C 0.00016006
35 *9301:B *9301:D 1.88578e-05
36 *9301:B *9601:CLK 1.28585e-05
37 *9301:B *446:12 5.13553e-05
38 *9313:B1 *9308:A 0.000224583
39 *9313:B1 *9308:B 6.64341e-05
40 *9313:B1 *9310:A_N 2.95641e-05
41 *9313:B1 *9313:A1 5.86894e-06
42 *9313:B1 *432:13 9.15543e-05
43 *414:14 *9302:A 2.95076e-06
44 *414:14 *9306:C 7.43578e-06
45 *414:14 *9306:D 1.38247e-05
46 *414:14 *9307:A 0
47 *414:14 *428:23 0
48 *414:14 *742:12 7.49387e-06
49 *414:14 *749:90 0.000548016
50 *414:24 *9302:A 6.05161e-06
51 *414:24 *9306:D 0.00014837
52 *414:24 *9601:RESET_B 1.12381e-05
53 *414:24 *731:64 5.01876e-05
54 *414:24 *749:90 0.000135495
55 *414:41 *9290:C 1.24368e-05
56 *414:41 *9297:D 3.67257e-05
57 *414:41 *9299:B 2.59355e-05
58 *414:41 *9301:C 0.000181796
59 *414:41 *9305:A2 5.06824e-05
60 *414:41 *9306:D 0.000140933
61 *414:41 *421:10 5.47747e-05
62 *414:52 *9290:C 0.000213172
63 *414:52 *9294:D 1.24368e-05
64 *414:52 *9295:A 5.74499e-06
65 *414:52 *9297:D 4.8843e-05
66 *414:83 *9308:B 0
67 *414:83 *9311:A 0.000125724
68 *414:83 *428:23 0
69 *414:83 *749:90 2.39876e-05
70 *414:83 *749:120 6.65398e-05
71 *1031:DIODE *9288:B 1.90111e-05
72 *9297:A *9288:B 0
73 *9297:A *414:52 5.71472e-05
74 *9601:D *414:24 4.76794e-05
75 *322:16 *414:14 3.69047e-06
76 *322:16 *414:24 1.21258e-05
77 *322:251 *414:14 6.26559e-05
78 *322:262 *9288:B 0
79 *322:303 *9288:B 0
80 *322:316 *9288:B 4.47762e-05
81 *404:42 *9288:B 8.90314e-05
*RES
1 *9285:Y *414:6 13.8 
2 *414:6 *414:14 13.2857 
3 *414:14 *414:24 16.3214 
4 *414:24 *9301:B 20.8536 
5 *414:24 *414:41 7.66071 
6 *414:41 *9297:B 10.0321 
7 *414:41 *414:52 6.67857 
8 *414:52 *9292:B 17.6036 
9 *414:52 *9288:B 25.55 
10 *414:14 *9306:B 9.3 
11 *414:6 *414:83 6.75 
12 *414:83 *9310:C 9.3 
13 *414:83 *9313:B1 15.6214 
*END

*D_NET *415 0.000958091
*CONN
*I *9288:C I *D sky130_fd_sc_hd__and4_1
*I *9286:Y O *D sky130_fd_sc_hd__nand2_1
*CAP
1 *9288:C 0.000105123
2 *9286:Y 0.000105123
3 *9288:C *9286:A 0.000139907
4 *9288:C *9286:B 2.44318e-05
5 *9288:C *9288:D 8.07313e-05
6 *9288:C *891:99 4.02699e-05
7 *9288:C *892:64 1.98839e-05
8 *1031:DIODE *9288:C 0.000442622
*RES
1 *9286:Y *9288:C 23.2607 
*END

*D_NET *416 0.000264371
*CONN
*I *9288:D I *D sky130_fd_sc_hd__and4_1
*I *9287:X O *D sky130_fd_sc_hd__or2_1
*CAP
1 *9288:D 1.94333e-05
2 *9287:X 1.94333e-05
3 *9288:D *891:99 0.000144773
4 *9288:C *9288:D 8.07313e-05
*RES
1 *9287:X *9288:D 19.9571 
*END

*D_NET *417 0.00118589
*CONN
*I *9289:A I *D sky130_fd_sc_hd__clkbuf_1
*I *9288:X O *D sky130_fd_sc_hd__and4_1
*CAP
1 *9289:A 0.000378817
2 *9288:X 0.000378817
3 *9289:A *9260:A 0.000371111
4 *9289:A *9808:A 0
5 *9289:A *891:10 0
6 *1031:DIODE *9289:A 5.71472e-05
*RES
1 *9288:X *9289:A 34.3857 
*END

*D_NET *418 0.000348597
*CONN
*I *9292:C I *D sky130_fd_sc_hd__and4_1
*I *9290:Y O *D sky130_fd_sc_hd__nand3_1
*CAP
1 *9292:C 0.000109451
2 *9290:Y 0.000109451
3 *9292:C *9290:A 5.04589e-05
4 *9292:C *9292:D 2.59355e-05
5 *9292:B *9292:C 5.33005e-05
*RES
1 *9290:Y *9292:C 20.7964 
*END

*D_NET *419 0.00105622
*CONN
*I *9292:D I *D sky130_fd_sc_hd__and4_1
*I *9291:X O *D sky130_fd_sc_hd__a21o_1
*CAP
1 *9292:D 0.000177586
2 *9291:X 0.000177586
3 *9292:D *9290:A 0.000277231
4 *9292:D *9295:A 0.000139913
5 *9292:D *9297:C 7.72966e-05
6 *9292:D *745:62 7.39203e-06
7 *9292:D *745:64 3.23846e-05
8 *9292:D *894:50 1.39726e-05
9 *9292:B *9292:D 1.02936e-05
10 *9292:C *9292:D 2.59355e-05
11 *322:281 *9292:D 0.000116631
*RES
1 *9291:X *9292:D 32.9214 
*END

*D_NET *420 0.000973194
*CONN
*I *9293:A I *D sky130_fd_sc_hd__clkbuf_1
*I *9292:X O *D sky130_fd_sc_hd__and4_1
*CAP
1 *9293:A 0.000211564
2 *9292:X 0.000211564
3 *9293:A *9268:A 0.000144773
4 *9293:A *9605:CLK 0
5 *9293:A *586:16 0
6 *9293:A *745:49 0.000160694
7 *9293:A *894:50 4.37485e-06
8 *1032:DIODE *9293:A 0.000108693
9 *9292:B *9293:A 5.80706e-06
10 *9599:D *9293:A 0.000125724
*RES
1 *9292:X *9293:A 33.3321 
*END

*D_NET *421 0.00603048
*CONN
*I *9295:A I *D sky130_fd_sc_hd__inv_2
*I *9305:A2 I *D sky130_fd_sc_hd__a21o_1
*I *9303:C I *D sky130_fd_sc_hd__and3_1
*I *9300:B I *D sky130_fd_sc_hd__or2_1
*I *9299:B I *D sky130_fd_sc_hd__nand2_1
*I *9294:X O *D sky130_fd_sc_hd__and4_1
*CAP
1 *9295:A 0.000316859
2 *9305:A2 0.000120917
3 *9303:C 5.36469e-05
4 *9300:B 0.00074603
5 *9299:B 3.39029e-05
6 *9294:X 0
7 *421:40 0.000469306
8 *421:21 0.00106047
9 *421:10 0.00031849
10 *421:4 0.000581749
11 *9295:A *1033:DIODE 5.83233e-05
12 *9295:A *9290:B 0.00019064
13 *9295:A *9294:B 3.69047e-06
14 *9295:A *9294:D 1.58163e-05
15 *9295:A *9297:D 4.18895e-05
16 *9295:A *893:35 5.74499e-06
17 *9295:A *894:50 0.000257601
18 *9300:B *9298:A 0.000202842
19 *9300:B *9301:D 4.45768e-06
20 *9300:B *9602:RESET_B 0.000136189
21 *9300:B *584:72 0.000244989
22 *9300:B *586:14 1.23973e-05
23 *9300:B *895:21 5.7661e-06
24 *9300:B *896:12 4.88715e-05
25 *9303:C *9303:A 2.59355e-05
26 *9305:A2 *9303:A 9.9462e-05
27 *9305:A2 *895:49 3.39451e-05
28 *9305:A2 *895:58 6.55169e-05
29 *421:10 *9297:D 0.00022459
30 *421:40 *9303:A 2.59355e-05
31 *421:40 *9725:A 5.33005e-05
32 *421:40 *584:72 0.000133914
33 *421:40 *586:12 3.02351e-05
34 *421:40 *586:14 1.08413e-05
35 *9292:B *9295:A 7.43578e-06
36 *9292:D *9295:A 0.000139913
37 *9297:B *421:10 3.08382e-06
38 *9602:D *9300:B 1.92789e-05
39 *322:260 *9303:C 2.10884e-06
40 *322:260 *421:40 5.54432e-05
41 *322:281 *9295:A 3.18135e-05
42 *414:41 *9299:B 2.59355e-05
43 *414:41 *9305:A2 5.06824e-05
44 *414:41 *421:10 5.47747e-05
45 *414:52 *9295:A 5.74499e-06
*RES
1 *9294:X *421:4 9.3 
2 *421:4 *421:10 4.26786 
3 *421:10 *9299:B 9.83571 
4 *421:10 *421:21 4.92857 
5 *421:21 *9300:B 25.2107 
6 *421:21 *421:40 9.03571 
7 *421:40 *9303:C 9.90714 
8 *421:40 *9305:A2 21.3402 
9 *421:4 *9295:A 24.8893 
*END

*D_NET *422 0.00224902
*CONN
*I *9297:C I *D sky130_fd_sc_hd__and4_1
*I *9295:Y O *D sky130_fd_sc_hd__inv_2
*CAP
1 *9297:C 0.000582187
2 *9295:Y 0.000582187
3 *9297:C *1033:DIODE 2.42516e-05
4 *9297:C *9294:B 0.000145248
5 *9297:C *586:12 0.000107843
6 *9297:C *586:14 2.06112e-05
7 *9297:C *745:64 0.000256716
8 *9292:D *9297:C 7.72966e-05
9 *9297:A *9297:C 5.68747e-05
10 *322:260 *9297:C 2.95726e-05
11 *322:281 *9297:C 0.00036623
*RES
1 *9295:Y *9297:C 46.7607 
*END

*D_NET *423 0.00186186
*CONN
*I *9297:D I *D sky130_fd_sc_hd__and4_1
*I *9296:X O *D sky130_fd_sc_hd__a31o_1
*CAP
1 *9297:D 0.000500683
2 *9296:X 0.000500683
3 *9297:D *1036:DIODE 0.00022091
4 *9297:D *9290:A 5.71472e-05
5 *9297:D *9290:C 0
6 *9297:D *586:14 0
7 *9297:D *745:64 2.06112e-05
8 *9297:D *892:38 7.69776e-06
9 *9288:B *9297:D 7.00418e-05
10 *9292:B *9297:D 8.49829e-05
11 *9295:A *9297:D 4.18895e-05
12 *9297:A *9297:D 4.70592e-05
13 *414:41 *9297:D 3.67257e-05
14 *414:52 *9297:D 4.8843e-05
15 *421:10 *9297:D 0.00022459
*RES
1 *9296:X *9297:D 40.6156 
*END

*D_NET *424 0.00100517
*CONN
*I *9298:A I *D sky130_fd_sc_hd__clkbuf_1
*I *9297:X O *D sky130_fd_sc_hd__and4_1
*CAP
1 *9298:A 0.000256891
2 *9297:X 0.000256891
3 *9298:A *9600:CLK 7.08482e-05
4 *9298:A *9605:CLK 4.46186e-06
5 *9298:A *584:72 3.25078e-05
6 *9298:A *586:14 6.39901e-05
7 *9298:A *586:16 7.71321e-05
8 *9298:A *696:16 2.56172e-05
9 *9300:B *9298:A 0.000202842
10 *9600:D *9298:A 1.39841e-05
*RES
1 *9297:X *9298:A 33.5643 
*END

*D_NET *425 0.00168377
*CONN
*I *9301:C I *D sky130_fd_sc_hd__and4_1
*I *9299:Y O *D sky130_fd_sc_hd__nand2_1
*CAP
1 *9301:C 0.000421272
2 *9299:Y 0.000421272
3 *9301:C *9301:D 0.000159569
4 *9301:C *9601:CLK 0.000204846
5 *9301:C *895:47 4.15183e-05
6 *9301:C *896:25 4.32258e-05
7 *9244:A *9301:C 5.02092e-05
8 *9301:B *9301:C 0.00016006
9 *414:41 *9301:C 0.000181796
*RES
1 *9299:Y *9301:C 39.4179 
*END

*D_NET *426 0.00132981
*CONN
*I *9301:D I *D sky130_fd_sc_hd__and4_1
*I *9300:X O *D sky130_fd_sc_hd__or2_1
*CAP
1 *9301:D 0.000431816
2 *9300:X 0.000431816
3 *9301:D *9306:D 1.77323e-05
4 *9301:D *9601:RESET_B 5.72433e-05
5 *9301:D *895:21 5.33334e-05
6 *9301:D *895:36 1.21258e-05
7 *9301:D *896:12 0.000142856
8 *9300:B *9301:D 4.45768e-06
9 *9301:B *9301:D 1.88578e-05
10 *9301:C *9301:D 0.000159569
*RES
1 *9300:X *9301:D 34.475 
*END

*D_NET *427 0.00108072
*CONN
*I *9302:A I *D sky130_fd_sc_hd__clkbuf_1
*I *9301:X O *D sky130_fd_sc_hd__and4_1
*CAP
1 *9302:A 0.000281528
2 *9301:X 0.000281528
3 *9302:A *9306:D 8.6229e-06
4 *9302:A *731:64 6.91215e-06
5 *9302:A *749:90 1.32386e-05
6 *9244:A *9302:A 0.000296164
7 *322:16 *9302:A 4.18895e-05
8 *322:18 *9302:A 0.00014183
9 *414:14 *9302:A 2.95076e-06
10 *414:24 *9302:A 6.05161e-06
*RES
1 *9301:X *9302:A 37.2208 
*END

*D_NET *428 0.00362593
*CONN
*I *9308:B I *D sky130_fd_sc_hd__and2_1
*I *9309:B1 I *D sky130_fd_sc_hd__o2bb2a_1
*I *9304:A I *D sky130_fd_sc_hd__inv_2
*I *9303:X O *D sky130_fd_sc_hd__and3_1
*CAP
1 *9308:B 0.000134677
2 *9309:B1 0.000170735
3 *9304:A 8.40221e-05
4 *9303:X 8.7668e-05
5 *428:23 0.000505197
6 *428:10 0.000371475
7 *9304:A *9307:A 5.33005e-05
8 *9304:A *705:10 0.000183713
9 *9308:B *9308:A 0
10 *9308:B *9310:A_N 0.00010096
11 *9308:B *9311:A 0
12 *9308:B *446:12 0.000173097
13 *9309:B1 *1042:DIODE 0.000399505
14 *9309:B1 *9311:A 0.000144773
15 *9309:B1 *749:98 1.98839e-05
16 *9309:B1 *897:26 0.000137983
17 *428:10 *9307:A 0.00012401
18 *428:10 *446:12 0.00012401
19 *428:10 *742:12 5.52238e-05
20 *428:23 *9307:A 2.24646e-05
21 *428:23 *446:12 0.000388146
22 *9251:A *9304:A 0
23 *9285:A *9309:B1 0.000137983
24 *9285:B *9309:B1 0.000140669
25 *9313:B1 *9308:B 6.64341e-05
26 *9603:D *9308:B 0
27 *414:14 *428:23 0
28 *414:83 *9308:B 0
29 *414:83 *428:23 0
*RES
1 *9303:X *428:10 15.9786 
2 *428:10 *9304:A 15.9964 
3 *428:10 *428:23 4.98214 
4 *428:23 *9309:B1 20.0857 
5 *428:23 *9308:B 17.425 
*END

*D_NET *429 0.000719922
*CONN
*I *9306:C I *D sky130_fd_sc_hd__and4_1
*I *9304:Y O *D sky130_fd_sc_hd__inv_2
*CAP
1 *9306:C 0.000185275
2 *9304:Y 0.000185275
3 *9306:C *9306:D 7.66995e-05
4 *9306:C *9307:A 0
5 *9306:C *742:12 8.86413e-05
6 *322:251 *9306:C 0.000176596
7 *414:14 *9306:C 7.43578e-06
*RES
1 *9304:Y *9306:C 31.725 
*END

*D_NET *430 0.00143421
*CONN
*I *9306:D I *D sky130_fd_sc_hd__and4_1
*I *9305:X O *D sky130_fd_sc_hd__a21o_1
*CAP
1 *9306:D 0.000407689
2 *9305:X 0.000407689
3 *9306:D *9601:CLK 3.18676e-05
4 *9306:D *9601:RESET_B 8.25512e-05
5 *9306:D *749:90 5.12276e-05
6 *9301:D *9306:D 1.77323e-05
7 *9302:A *9306:D 8.6229e-06
8 *9306:C *9306:D 7.66995e-05
9 *9601:D *9306:D 4.70078e-05
10 *414:14 *9306:D 1.38247e-05
11 *414:24 *9306:D 0.00014837
12 *414:41 *9306:D 0.000140933
*RES
1 *9305:X *9306:D 36.3857 
*END

*D_NET *431 0.00147647
*CONN
*I *9307:A I *D sky130_fd_sc_hd__clkbuf_1
*I *9306:X O *D sky130_fd_sc_hd__and4_1
*CAP
1 *9307:A 0.000447895
2 *9306:X 0.000447895
3 *9307:A *1039:DIODE 1.55885e-05
4 *9307:A *705:10 3.97677e-05
5 *9307:A *742:12 0.00027032
6 *9304:A *9307:A 5.33005e-05
7 *9306:C *9307:A 0
8 *322:251 *9307:A 0
9 *347:143 *9307:A 5.52302e-05
10 *414:14 *9307:A 0
11 *428:10 *9307:A 0.00012401
12 *428:23 *9307:A 2.24646e-05
*RES
1 *9306:X *9307:A 35.1357 
*END

*D_NET *432 0.00122188
*CONN
*I *9313:A2 I *D sky130_fd_sc_hd__o21a_1
*I *9312:B I *D sky130_fd_sc_hd__nand2_1
*I *9310:A_N I *D sky130_fd_sc_hd__and3b_1
*I *9308:X O *D sky130_fd_sc_hd__and2_1
*CAP
1 *9313:A2 0
2 *9312:B 0.000112092
3 *9310:A_N 8.59172e-05
4 *9308:X 0
5 *432:13 0.0002202
6 *432:4 0.000194025
7 *9310:A_N *9308:A 3.18676e-05
8 *9312:B *9312:A 2.34059e-05
9 *9312:B *435:8 8.15939e-05
10 *432:13 *9314:C 9.76491e-05
11 *9285:B *9312:B 0.000153047
12 *9308:B *9310:A_N 0.00010096
13 *9313:B1 *9310:A_N 2.95641e-05
14 *9313:B1 *432:13 9.15543e-05
*RES
1 *9308:X *432:4 9.3 
2 *432:4 *9310:A_N 11.4786 
3 *432:4 *432:13 2.58929 
4 *432:13 *9312:B 21.5143 
5 *432:13 *9313:A2 9.3 
*END

*D_NET *433 0.00154626
*CONN
*I *9310:B I *D sky130_fd_sc_hd__and3b_1
*I *9309:X O *D sky130_fd_sc_hd__o2bb2a_1
*CAP
1 *9310:B 0.000546042
2 *9309:X 0.000546042
3 *9310:B *9308:A 1.21258e-05
4 *9310:B *9311:A 9.90431e-05
5 *9310:B *897:16 0.000108848
6 *9310:B *897:22 5.80706e-06
7 *9250:B *9310:B 0.000200413
8 *9309:A2_N *9310:B 2.79421e-05
*RES
1 *9309:X *9310:B 35.6179 
*END

*D_NET *434 0.00106821
*CONN
*I *9311:A I *D sky130_fd_sc_hd__clkbuf_1
*I *9310:X O *D sky130_fd_sc_hd__and3b_1
*CAP
1 *9311:A 0.000175711
2 *9310:X 0.000175711
3 *9311:A *9308:A 6.15503e-05
4 *9311:A *749:120 1.78353e-05
5 *9285:B *9311:A 0.000142856
6 *9308:B *9311:A 0
7 *9309:B1 *9311:A 0.000144773
8 *9310:B *9311:A 9.90431e-05
9 *9603:D *9311:A 0.00012501
10 *414:83 *9311:A 0.000125724
*RES
1 *9310:X *9311:A 33.2964 
*END

*D_NET *435 0.00259583
*CONN
*I *9363:B I *D sky130_fd_sc_hd__or2_1
*I *9422:A2 I *D sky130_fd_sc_hd__o21a_1
*I *9314:B I *D sky130_fd_sc_hd__and3_1
*I *9312:Y O *D sky130_fd_sc_hd__nand2_1
*CAP
1 *9363:B 1.35541e-05
2 *9422:A2 9.96277e-05
3 *9314:B 0
4 *9312:Y 0.000111763
5 *435:21 0.000334559
6 *435:8 0.00033314
7 *9363:B *748:41 5.33005e-05
8 *9422:A2 *9606:CLK 4.56437e-05
9 *9422:A2 *587:66 5.59013e-05
10 *435:8 *9312:A 7.83587e-05
11 *435:8 *9314:C 7.6644e-05
12 *435:8 *9315:A 0.00010209
13 *435:21 *9314:C 8.72671e-05
14 *435:21 *9315:A 5.80706e-06
15 *435:21 *9422:B1 0.000144773
16 *435:21 *748:41 0.000202757
17 *9285:B *435:8 1.40849e-05
18 *9312:B *435:8 8.15939e-05
19 *9326:C *435:21 0.000102458
20 *9363:A *9363:B 4.18895e-05
21 *9363:A *435:21 0.000443654
22 *9422:A1 *9422:A2 5.52238e-05
23 *407:84 *9422:A2 5.01213e-05
24 *407:84 *435:21 0
25 *413:10 *435:21 5.80706e-06
26 *413:12 *435:21 5.58081e-05
*RES
1 *9312:Y *435:8 17.2643 
2 *435:8 *9314:B 13.8 
3 *435:8 *435:21 11.5893 
4 *435:21 *9422:A2 20.175 
5 *435:21 *9363:B 9.83571 
*END

*D_NET *436 0.00110327
*CONN
*I *9314:C I *D sky130_fd_sc_hd__and3_1
*I *9313:X O *D sky130_fd_sc_hd__o21a_1
*CAP
1 *9314:C 0.000286391
2 *9313:X 0.000286391
3 *9314:C *9313:A1 1.58213e-06
4 *9314:C *587:42 6.04072e-05
5 *9285:B *9314:C 9.49379e-05
6 *9326:C *9314:C 6.04072e-05
7 *413:12 *9314:C 5.1588e-05
8 *432:13 *9314:C 9.76491e-05
9 *435:8 *9314:C 7.6644e-05
10 *435:21 *9314:C 8.72671e-05
*RES
1 *9313:X *9314:C 32.6357 
*END

*D_NET *437 0.000670885
*CONN
*I *9315:A I *D sky130_fd_sc_hd__clkbuf_1
*I *9314:X O *D sky130_fd_sc_hd__and3_1
*CAP
1 *9315:A 0.000126104
2 *9314:X 0.000126104
3 *9315:A *9312:A 0.000139409
4 *9315:A *9597:CLK 2.58997e-05
5 *9597:D *9315:A 4.29272e-05
6 *9604:D *9315:A 0.000102545
7 *435:8 *9315:A 0.00010209
8 *435:21 *9315:A 5.80706e-06
*RES
1 *9314:X *9315:A 31.7964 
*END

*D_NET *438 0.00304709
*CONN
*I *9505:A I *D sky130_fd_sc_hd__nor2_1
*I *9508:A I *D sky130_fd_sc_hd__and2_1
*I *9317:C I *D sky130_fd_sc_hd__nand3_1
*I *9513:A2 I *D sky130_fd_sc_hd__a31o_1
*I *9316:X O *D sky130_fd_sc_hd__and3_1
*CAP
1 *9505:A 0
2 *9508:A 0.000289152
3 *9317:C 0
4 *9513:A2 0.000146211
5 *9316:X 0
6 *438:34 0.000488565
7 *438:10 0.000261484
8 *438:6 0.000314686
9 *9508:A *9505:B 0.000183713
10 *9508:A *9506:A 0
11 *9508:A *9506:B 1.69961e-05
12 *9508:A *9507:A3 2.28598e-05
13 *9508:A *9508:B 0
14 *9508:A *9509:A0 0
15 *9508:A *9509:A1 1.24368e-05
16 *9508:A *9673:RESET_B 1.02504e-05
17 *9508:A *741:164 0.000308252
18 *9508:A *783:55 2.28598e-05
19 *9513:A2 *9513:A3 6.33308e-05
20 *9513:A2 *9513:B1 9.71197e-05
21 *9513:A2 *9678:CLK 0.000153273
22 *9513:A2 *596:21 0
23 *438:10 *9316:A 0
24 *438:10 *9678:CLK 4.57445e-05
25 *438:10 *596:64 3.20153e-05
26 *438:10 *787:27 0.000124957
27 *438:34 *9507:A3 0.000137983
28 *438:34 *9509:A0 4.72818e-05
29 *438:34 *9509:A1 8.70594e-05
30 *438:34 *9676:CLK 1.41706e-05
31 *438:34 *596:64 3.75052e-05
32 *438:34 *741:164 8.9904e-05
33 *438:34 *787:27 3.92757e-05
*RES
1 *9316:X *438:6 13.8 
2 *438:6 *438:10 7.66071 
3 *438:10 *9513:A2 13.175 
4 *438:10 *9317:C 9.3 
5 *438:6 *438:34 9.85714 
6 *438:34 *9508:A 25.2286 
7 *438:34 *9505:A 9.3 
*END

*D_NET *439 0.00332507
*CONN
*I *9319:B I *D sky130_fd_sc_hd__or3_2
*I *9511:A I *D sky130_fd_sc_hd__and2_1
*I *9317:Y O *D sky130_fd_sc_hd__nand3_1
*CAP
1 *9319:B 0.000443046
2 *9511:A 0.000132571
3 *9317:Y 0.000734461
4 *439:6 0.00131008
5 *9319:B *9514:A1 0
6 *9319:B *440:16 8.00806e-05
7 *9319:B *539:31 0
8 *9319:B *737:22 0
9 *9319:B *785:33 0.000193239
10 *9511:A *9508:B 4.46186e-06
11 *9511:A *737:22 0.000132452
12 *439:6 *9317:A 4.88631e-05
13 *439:6 *9678:CLK 8.9338e-05
14 *439:6 *9678:RESET_B 7.9835e-05
15 *9673:D *9319:B 7.6644e-05
16 *9673:D *9511:A 0
*RES
1 *9317:Y *439:6 18.05 
2 *439:6 *9511:A 21.4607 
3 *439:6 *9319:B 25.4607 
*END

*D_NET *440 0.00719824
*CONN
*I *9500:B I *D sky130_fd_sc_hd__nor2_1
*I *9505:B I *D sky130_fd_sc_hd__nor2_1
*I *9319:C I *D sky130_fd_sc_hd__or3_2
*I *9318:X O *D sky130_fd_sc_hd__or4b_2
*CAP
1 *9500:B 1.91209e-05
2 *9505:B 0.000469107
3 *9319:C 0
4 *9318:X 0.00119542
5 *440:25 0.000688898
6 *440:16 0.00139609
7 *9500:B *549:16 0
8 *9505:B *9500:A 1.33343e-05
9 *9505:B *9506:A 0.000642559
10 *9505:B *9506:B 5.71472e-05
11 *9505:B *9509:A0 4.58976e-05
12 *9505:B *9512:A1 7.83587e-05
13 *9505:B *9673:RESET_B 2.16719e-05
14 *9505:B *9678:RESET_B 6.65302e-05
15 *9505:B *542:12 0.000109575
16 *9505:B *549:8 0
17 *9505:B *549:16 3.48705e-05
18 *9505:B *741:166 8.33559e-05
19 *440:16 *9318:A 8.69896e-06
20 *440:16 *9318:B 0.000112068
21 *440:16 *9318:D_N 0.000140933
22 *440:16 *9463:B 0.000186669
23 *440:16 *9465:A 0.000236551
24 *440:16 *9712:D 2.89016e-05
25 *440:16 *9712:RESET_B 3.90159e-05
26 *440:16 *539:31 0
27 *440:16 *785:33 2.15363e-05
28 *440:16 *796:42 0.000732662
29 *440:25 *1137:DIODE 5.52238e-05
30 *440:25 *9319:A 1.97695e-05
31 *440:25 *539:16 0.000174232
32 *440:25 *542:12 1.33343e-05
33 *440:25 *549:16 8.71761e-05
34 *440:25 *737:22 0.000146523
35 *9319:B *440:16 8.00806e-05
36 *9508:A *9505:B 0.000183713
37 *9678:D *9505:B 0
38 *337:257 *440:25 9.22103e-06
*RES
1 *9318:X *440:16 38.3625 
2 *440:16 *9319:C 9.3 
3 *440:16 *440:25 5.48214 
4 *440:25 *9505:B 30.675 
5 *440:25 *9500:B 9.72857 
*END

*D_NET *441 0.00472535
*CONN
*I *9545:A I *D sky130_fd_sc_hd__clkbuf_8
*I *9578:S I *D sky130_fd_sc_hd__mux2_1
*I *9320:A I *D sky130_fd_sc_hd__clkbuf_8
*I *9319:X O *D sky130_fd_sc_hd__or3_2
*CAP
1 *9545:A 4.23642e-05
2 *9578:S 7.99741e-05
3 *9320:A 0.000456608
4 *9319:X 0.000438739
5 *441:14 0.000710055
6 *441:10 0.000654576
7 *9320:A *9499:B1 5.74499e-06
8 *9320:A *9710:CLK 6.28356e-05
9 *9320:A *9710:RESET_B 1.92789e-05
10 *9320:A *538:74 2.88018e-06
11 *9320:A *540:27 2.28598e-05
12 *9320:A *796:16 0.00022266
13 *9545:A *597:20 8.57023e-05
14 *9578:S *9578:A1 0.000236814
15 *441:10 *9482:A2 0.000159177
16 *441:10 *537:14 0.000140933
17 *441:10 *566:12 9.60875e-05
18 *441:10 *597:20 0.000136958
19 *441:10 *737:22 2.28499e-05
20 *441:10 *796:42 8.43535e-06
21 *441:14 *9578:A1 7.83659e-05
22 *441:14 *796:20 0.000437927
23 *187:24 *9578:S 5.7616e-05
24 *238:8 *9578:S 9.7478e-05
25 *238:8 *441:14 0.000264715
26 *337:253 *441:10 0.00018372
*RES
1 *9319:X *441:10 18.0857 
2 *441:10 *441:14 11 
3 *441:14 *9320:A 19.6929 
4 *441:14 *9578:S 16.9607 
5 *441:10 *9545:A 10.2464 
*END

*D_NET *442 0.0348842
*CONN
*I *9537:S I *D sky130_fd_sc_hd__mux2_1
*I *1153:DIODE I *D sky130_fd_sc_hd__diode_2
*I *1145:DIODE I *D sky130_fd_sc_hd__diode_2
*I *9523:S I *D sky130_fd_sc_hd__mux2_1
*I *1148:DIODE I *D sky130_fd_sc_hd__diode_2
*I *9527:S I *D sky130_fd_sc_hd__mux2_1
*I *9321:A I *D sky130_fd_sc_hd__inv_2
*I *1045:DIODE I *D sky130_fd_sc_hd__diode_2
*I *1156:DIODE I *D sky130_fd_sc_hd__diode_2
*I *9541:S I *D sky130_fd_sc_hd__mux2_1
*I *1155:DIODE I *D sky130_fd_sc_hd__diode_2
*I *1140:DIODE I *D sky130_fd_sc_hd__diode_2
*I *9517:S I *D sky130_fd_sc_hd__mux2_1
*I *1141:DIODE I *D sky130_fd_sc_hd__diode_2
*I *9519:S I *D sky130_fd_sc_hd__mux2_1
*I *1143:DIODE I *D sky130_fd_sc_hd__diode_2
*I *1152:DIODE I *D sky130_fd_sc_hd__diode_2
*I *9535:S I *D sky130_fd_sc_hd__mux2_1
*I *9521:S I *D sky130_fd_sc_hd__mux2_1
*I *9533:S I *D sky130_fd_sc_hd__mux2_1
*I *1151:DIODE I *D sky130_fd_sc_hd__diode_2
*I *1149:DIODE I *D sky130_fd_sc_hd__diode_2
*I *9529:S I *D sky130_fd_sc_hd__mux2_1
*I *1150:DIODE I *D sky130_fd_sc_hd__diode_2
*I *9531:S I *D sky130_fd_sc_hd__mux2_1
*I *1144:DIODE I *D sky130_fd_sc_hd__diode_2
*I *9515:S I *D sky130_fd_sc_hd__mux2_1
*I *9543:S I *D sky130_fd_sc_hd__mux2_1
*I *9539:S I *D sky130_fd_sc_hd__mux2_1
*I *1154:DIODE I *D sky130_fd_sc_hd__diode_2
*I *9525:S I *D sky130_fd_sc_hd__mux2_1
*I *1147:DIODE I *D sky130_fd_sc_hd__diode_2
*I *9320:X O *D sky130_fd_sc_hd__clkbuf_8
*CAP
1 *9537:S 0.000393333
2 *1153:DIODE 0
3 *1145:DIODE 0
4 *9523:S 0
5 *1148:DIODE 8.31215e-05
6 *9527:S 0
7 *9321:A 1.07897e-05
8 *1045:DIODE 0.000113083
9 *1156:DIODE 0
10 *9541:S 4.12559e-05
11 *1155:DIODE 0.000161849
12 *1140:DIODE 0
13 *9517:S 1.5139e-05
14 *1141:DIODE 0.000130483
15 *9519:S 0.000127712
16 *1143:DIODE 4.70928e-05
17 *1152:DIODE 0
18 *9535:S 5.64286e-05
19 *9521:S 5.1181e-05
20 *9533:S 1.49752e-05
21 *1151:DIODE 0.000281828
22 *1149:DIODE 0.000107386
23 *9529:S 0
24 *1150:DIODE 0.000497075
25 *9531:S 4.60835e-05
26 *1144:DIODE 0
27 *9515:S 0
28 *9543:S 0
29 *9539:S 0
30 *1154:DIODE 0.000100845
31 *9525:S 0
32 *1147:DIODE 0.000110888
33 *9320:X 0
34 *442:390 0.000559675
35 *442:381 0.000251808
36 *442:374 0.000434688
37 *442:356 8.31215e-05
38 *442:354 0.00097936
39 *442:328 0.000681406
40 *442:322 0.00121141
41 *442:301 0.000791116
42 *442:238 0.00068856
43 *442:194 0.000633426
44 *442:156 0.00057781
45 *442:152 0.000394937
46 *442:144 0.000159701
47 *442:127 0.000698626
48 *442:114 0.000684579
49 *442:108 0.000251093
50 *442:106 0.000952791
51 *442:104 0.000320065
52 *442:102 0.000374532
53 *442:96 0.000409774
54 *442:90 0.000298213
55 *442:79 0.000400685
56 *442:67 0.000540732
57 *442:60 0.000459548
58 *442:52 0.000859875
59 *442:48 0.00030053
60 *442:32 0.000219914
61 *442:28 0.000367126
62 *442:12 0.000110888
63 *442:10 0.000753415
64 *442:4 0.000672107
65 *1045:DIODE *1164:DIODE 1.40306e-05
66 *1045:DIODE *9318:C 0
67 *1045:DIODE *597:68 0.000126439
68 *1143:DIODE *9681:CLK 2.59355e-05
69 *1147:DIODE *9525:A0 5.33334e-05
70 *1147:DIODE *740:137 0.000312209
71 *1148:DIODE *541:83 9.92409e-05
72 *1149:DIODE *9532:A 2.28335e-05
73 *1149:DIODE *799:23 5.62995e-05
74 *1149:DIODE *802:16 3.69697e-05
75 *1150:DIODE *9485:B1 5.62995e-05
76 *1150:DIODE *9485:B2 8.9163e-05
77 *1150:DIODE *791:64 0.000175068
78 *1150:DIODE *814:37 0.00059919
79 *1151:DIODE *9686:RESET_B 0.000199173
80 *1151:DIODE *799:10 0.000188586
81 *1154:DIODE *9539:A1 5.52302e-05
82 *1154:DIODE *540:79 0.000127031
83 *1154:DIODE *743:114 0.000401764
84 *1155:DIODE *9541:A0 6.05161e-06
85 *9321:A *796:82 4.74489e-06
86 *9517:S *9515:A1 0
87 *9519:S *9519:A0 1.92789e-05
88 *9519:S *9519:A1 5.71472e-05
89 *9519:S *9520:A 9.71197e-05
90 *9519:S *789:16 9.87983e-06
91 *9521:S *9521:A1 0.00010096
92 *9521:S *9751:A 5.52238e-05
93 *9531:S *9529:A0 1.97756e-05
94 *9531:S *9531:A0 9.60875e-05
95 *9531:S *9531:A1 5.7661e-06
96 *9533:S *9531:A1 4.08637e-05
97 *9535:S *9488:A1 0.000101545
98 *9535:S *541:294 0
99 *9535:S *541:305 1.08359e-05
100 *9535:S *802:10 6.81083e-05
101 *9535:S *802:16 8.25098e-05
102 *9537:S *9102:B 7.6644e-05
103 *9537:S *9800:A 4.1331e-06
104 *9541:S *9541:A0 4.72917e-05
105 *442:10 *9498:A1 0.000313458
106 *442:10 *540:27 9.90431e-05
107 *442:10 *540:31 0
108 *442:10 *540:67 0
109 *442:10 *541:14 0
110 *442:10 *541:20 7.2754e-05
111 *442:10 *541:41 5.39552e-05
112 *442:10 *757:18 6.16958e-05
113 *442:10 *794:82 0.00045554
114 *442:28 *540:67 0
115 *442:28 *757:18 4.66189e-05
116 *442:32 *540:67 0
117 *442:32 *540:71 7.17235e-05
118 *442:32 *540:79 0.000146513
119 *442:32 *743:114 2.14658e-05
120 *442:32 *743:130 0.000181831
121 *442:48 *540:67 3.33174e-05
122 *442:48 *540:69 7.31522e-05
123 *442:48 *540:71 1.56e-05
124 *442:48 *540:109 3.30352e-05
125 *442:48 *541:95 8.45419e-05
126 *442:48 *541:101 1.32552e-05
127 *442:48 *743:130 0.000272371
128 *442:48 *743:139 0.000446603
129 *442:52 *9489:A1 0
130 *442:52 *740:187 0
131 *442:60 *9489:A1 0.000188008
132 *442:60 *9543:A0 9.90367e-05
133 *442:60 *9544:A 9.28838e-05
134 *442:60 *540:145 0.000186662
135 *442:67 *9493:A2 6.87725e-05
136 *442:67 *9543:A0 0.000297849
137 *442:67 *540:145 0.000698716
138 *442:67 *541:148 0.000153474
139 *442:79 *9518:A 5.65955e-05
140 *442:79 *589:61 5.28442e-06
141 *442:79 *840:25 2.84109e-05
142 *442:90 *9515:A1 0.000431365
143 *442:90 *9518:A 0.000342497
144 *442:90 *840:25 4.60153e-05
145 *442:96 *9493:B2 2.56694e-05
146 *442:102 *9493:B2 2.1527e-05
147 *442:102 *9495:A1 7.83366e-05
148 *442:102 *9787:A 1.24469e-05
149 *442:102 *789:16 1.12301e-05
150 *442:102 *790:14 0
151 *442:104 *9787:A 0.000104034
152 *442:104 *789:16 8.40351e-06
153 *442:106 *9787:A 0.000293422
154 *442:106 *789:16 0.000255876
155 *442:108 *789:16 7.6021e-05
156 *442:108 *790:14 0
157 *442:114 *9521:A1 0.000102545
158 *442:114 *789:16 7.6021e-05
159 *442:114 *791:38 0.000139913
160 *442:114 *792:67 7.61932e-05
161 *442:127 *1110:DIODE 7.4826e-05
162 *442:127 *9486:A1 0.00018077
163 *442:127 *540:212 2.84398e-05
164 *442:127 *541:249 2.84398e-05
165 *442:127 *588:14 0
166 *442:127 *588:16 0
167 *442:127 *588:18 0
168 *442:127 *646:14 0
169 *442:127 *791:38 0.000312209
170 *442:127 *792:67 4.58976e-05
171 *442:144 *9531:A0 2.44318e-05
172 *442:144 *9531:A1 0.000259438
173 *442:152 *9462:A1 2.26327e-05
174 *442:152 *9532:A 8.00806e-05
175 *442:152 *588:29 0.000125724
176 *442:156 *9462:A1 1.21258e-05
177 *442:156 *814:37 8.17274e-05
178 *442:194 *9686:CLK 0.000250915
179 *442:194 *9687:CLK 7.51141e-05
180 *442:194 *588:29 3.34366e-05
181 *442:194 *802:16 9.86636e-05
182 *442:238 *9689:RESET_B 0.000608141
183 *442:238 *540:189 0.000139913
184 *442:238 *540:198 8.87097e-05
185 *442:301 *9542:A 0
186 *442:301 *540:145 0
187 *442:301 *540:331 0
188 *442:301 *740:187 0
189 *442:301 *806:10 0
190 *442:322 *540:27 5.52238e-05
191 *442:328 *9318:C 4.1331e-06
192 *442:328 *9737:A 7.33225e-05
193 *442:328 *540:349 0
194 *442:328 *541:14 5.33882e-05
195 *442:328 *597:66 0.000191251
196 *442:328 *757:18 0
197 *442:328 *796:82 7.83587e-05
198 *442:354 *9067:B 0
199 *442:354 *9527:A1 0.000128161
200 *442:354 *540:27 0.000139913
201 *442:354 *540:349 8.57023e-05
202 *442:354 *541:74 1.15281e-05
203 *442:354 *794:12 3.79197e-05
204 *442:354 *795:22 2.89016e-05
205 *442:374 *9067:B 0
206 *442:374 *9523:A0 1.55885e-05
207 *442:374 *9523:A1 5.52302e-05
208 *442:374 *9527:A0 3.92854e-05
209 *442:374 *9683:RESET_B 5.33433e-05
210 *442:374 *794:12 0.00010323
211 *442:381 *9523:A1 0.000229456
212 *442:390 *9523:A1 0.000230475
213 *9640:D *9533:S 5.33005e-05
214 *9640:D *442:127 3.69697e-05
215 *9640:D *442:144 0.000205197
216 *9668:D *442:106 0
217 *9670:D *442:10 0.000313458
218 *9681:D *442:104 3.92854e-05
219 *9681:D *442:106 4.46186e-06
220 *9693:D *442:301 4.25716e-05
221 *9789:A *9519:S 0.000357952
222 *9803:A *1141:DIODE 0.000181796
223 *187:24 *442:10 2.04825e-05
224 *299:16 *9531:S 3.37729e-05
225 *299:27 *442:127 2.05938e-05
226 *337:235 *442:328 0
227 *348:161 *442:127 0.000760857
228 *372:18 *442:354 0
229 *373:12 *9537:S 3.81e-05
230 *373:14 *442:79 6.08101e-05
*RES
1 *9320:X *442:4 9.3 
2 *442:4 *442:10 20.75 
3 *442:10 *442:12 4.5 
4 *442:12 *1147:DIODE 12.3 
5 *442:12 *9525:S 9.3 
6 *442:10 *442:28 6.44643 
7 *442:28 *442:32 4.25 
8 *442:32 *1154:DIODE 13.55 
9 *442:32 *9539:S 9.3 
10 *442:28 *442:48 6.69643 
11 *442:48 *442:52 7.05357 
12 *442:52 *442:60 8.76786 
13 *442:60 *9543:S 9.3 
14 *442:60 *442:67 10.3929 
15 *442:67 *442:79 12.8571 
16 *442:79 *9515:S 9.3 
17 *442:79 *442:90 6.42857 
18 *442:90 *442:96 5.96429 
19 *442:96 *442:102 4.27679 
20 *442:102 *442:104 1.49107 
21 *442:104 *442:106 6.5 
22 *442:106 *442:108 1.94643 
23 *442:108 *442:114 7.80357 
24 *442:114 *1144:DIODE 9.3 
25 *442:114 *442:127 24.2679 
26 *442:127 *9531:S 10.9786 
27 *442:127 *442:144 3.57143 
28 *442:144 *442:152 11.0714 
29 *442:152 *442:156 1.78571 
30 *442:156 *1150:DIODE 28.4607 
31 *442:156 *9529:S 9.3 
32 *442:152 *442:194 11.6429 
33 *442:194 *1149:DIODE 15.7821 
34 *442:194 *1151:DIODE 19.4071 
35 *442:144 *9533:S 9.83571 
36 *442:108 *9521:S 15.1571 
37 *442:106 *442:238 13.25 
38 *442:238 *9535:S 20.2464 
39 *442:238 *1152:DIODE 9.3 
40 *442:104 *1143:DIODE 14.3357 
41 *442:102 *9519:S 18.0232 
42 *442:96 *1141:DIODE 15.5679 
43 *442:90 *9517:S 9.72857 
44 *442:67 *1140:DIODE 9.3 
45 *442:52 *442:301 14.9464 
46 *442:301 *1155:DIODE 11.8893 
47 *442:301 *9541:S 10.2464 
48 *442:48 *1156:DIODE 9.3 
49 *442:4 *442:322 0.535714 
50 *442:322 *442:328 14.9821 
51 *442:328 *1045:DIODE 15.9786 
52 *442:328 *9321:A 13.9607 
53 *442:322 *442:354 15.2857 
54 *442:354 *442:356 4.5 
55 *442:356 *9527:S 9.3 
56 *442:356 *1148:DIODE 11.0679 
57 *442:354 *442:374 11.6607 
58 *442:374 *9523:S 9.3 
59 *442:374 *442:381 2.17857 
60 *442:381 *1145:DIODE 9.3 
61 *442:381 *442:390 3.625 
62 *442:390 *1153:DIODE 9.3 
63 *442:390 *9537:S 23.6571 
*END

*D_NET *443 0.00220102
*CONN
*I *9436:S I *D sky130_fd_sc_hd__mux2_1
*I *9323:B I *D sky130_fd_sc_hd__nand2_1
*I *9438:S I *D sky130_fd_sc_hd__mux2_1
*I *9322:X O *D sky130_fd_sc_hd__and3_1
*CAP
1 *9436:S 0
2 *9323:B 0.000207867
3 *9438:S 0.00015268
4 *9322:X 1.99379e-05
5 *443:23 0.000374492
6 *443:6 0.000339243
7 *9323:B *921:DIODE 8.43535e-06
8 *9323:B *9325:A2 0.00010096
9 *9323:B *9436:A0 5.33005e-05
10 *9323:B *9436:A1 0.000105848
11 *9323:B *9437:A 0.00018066
12 *9323:B *720:30 0
13 *9438:S *9194:A 0
14 *9438:S *602:21 0
15 *9438:S *720:26 1.76039e-05
16 *443:6 *720:30 5.33334e-05
17 *443:23 *921:DIODE 7.77652e-05
18 *443:23 *720:30 5.46335e-05
19 *1046:DIODE *9438:S 5.26091e-05
20 *9170:A *9323:B 9.96409e-05
21 *9322:C *443:23 9.99644e-06
22 *342:16 *443:6 9.90367e-05
23 *342:16 *443:23 0.000171086
24 *404:79 *9438:S 2.1892e-05
*RES
1 *9322:X *443:6 10.2464 
2 *443:6 *9438:S 21.4607 
3 *443:6 *443:23 4.375 
4 *443:23 *9323:B 15.0679 
5 *443:23 *9436:S 9.3 
*END

*D_NET *444 0.00170796
*CONN
*I *9325:A2 I *D sky130_fd_sc_hd__a21o_1
*I *9323:Y O *D sky130_fd_sc_hd__nand2_1
*CAP
1 *9325:A2 0.000355202
2 *9323:Y 0.000355202
3 *9325:A2 *9325:A1 1.04232e-05
4 *9325:A2 *9436:A1 0.000142856
5 *9325:A2 *9437:A 2.44318e-05
6 *9325:A2 *9626:RESET_B 0.00011192
7 *9325:A2 *719:14 0.000565489
8 *9325:A2 *732:44 2.01322e-05
9 *9325:A2 *749:52 2.13445e-05
10 *9325:A2 *751:24 0
11 *9323:B *9325:A2 0.00010096
12 *9588:D *9325:A2 0
*RES
1 *9323:Y *9325:A2 37.7473 
*END

*D_NET *445 0.00424669
*CONN
*I *9337:B I *D sky130_fd_sc_hd__nor2_1
*I *9341:A_N I *D sky130_fd_sc_hd__and3b_1
*I *9325:B1 I *D sky130_fd_sc_hd__a21o_1
*I *9348:B I *D sky130_fd_sc_hd__or3_1
*I *9349:A2 I *D sky130_fd_sc_hd__o211a_1
*I *9324:Y O *D sky130_fd_sc_hd__nor2b_1
*CAP
1 *9337:B 0.000406946
2 *9341:A_N 0
3 *9325:B1 0.000221695
4 *9348:B 4.38777e-05
5 *9349:A2 3.62676e-05
6 *9324:Y 0.000173649
7 *445:23 0.000359511
8 *445:19 0.000574037
9 *445:6 0.000283069
10 *9325:B1 *601:22 5.33978e-05
11 *9325:B1 *709:14 9.4724e-05
12 *9325:B1 *749:52 0.000384541
13 *9337:B *9172:A 6.35826e-05
14 *9337:B *9338:C 0.000108311
15 *9348:B *9348:A 5.52302e-05
16 *445:6 *9324:A 2.28499e-05
17 *445:19 *9349:C1 2.89016e-05
18 *445:23 *9348:C 0.000220455
19 *445:23 *601:22 2.26327e-05
20 *445:23 *709:14 0.000262956
21 *9172:C *9337:B 7.1681e-05
22 *9338:B *9348:B 1.97695e-05
23 *9592:D *445:6 5.52238e-05
24 *332:10 *9337:B 0.000286312
25 *332:10 *9349:A2 0
26 *332:14 *9337:B 1.21258e-05
27 *332:14 *9349:A2 4.22908e-05
28 *332:14 *445:6 1.02936e-05
29 *332:14 *445:19 2.42547e-05
30 *332:20 *9349:A2 3.57366e-05
31 *332:20 *445:6 0.000272371
*RES
1 *9324:Y *445:6 13.1214 
2 *445:6 *9349:A2 10.6929 
3 *445:6 *445:19 1.35714 
4 *445:19 *445:23 7.96429 
5 *445:23 *9348:B 14.7643 
6 *445:23 *9325:B1 19.3 
7 *445:19 *9341:A_N 9.3 
8 *445:19 *9337:B 17.4607 
*END

*D_NET *446 0.00387752
*CONN
*I *9327:A I *D sky130_fd_sc_hd__clkbuf_1
*I *9326:X O *D sky130_fd_sc_hd__or3_1
*CAP
1 *9327:A 0
2 *9326:X 0.00104289
3 *446:12 0.00104289
4 *446:12 *9601:CLK 1.94945e-05
5 *446:12 *9601:RESET_B 0
6 *446:12 *584:98 0
7 *446:12 *705:14 0.00103564
8 *446:12 *745:41 0
9 *446:12 *745:107 0
10 *9285:B *446:12 0
11 *9301:B *446:12 5.13553e-05
12 *9308:B *446:12 0.000173097
13 *9603:D *446:12 0
14 *347:143 *446:12 0
15 *428:10 *446:12 0.00012401
16 *428:23 *446:12 0.000388146
*RES
1 *9326:X *446:12 41.925 
2 *446:12 *9327:A 9.3 
*END

*D_NET *447 0.00202301
*CONN
*I *9330:B1 I *D sky130_fd_sc_hd__o21a_1
*I *9329:Y O *D sky130_fd_sc_hd__a21oi_1
*CAP
1 *9330:B1 0.000302834
2 *9329:Y 0.000302834
3 *9330:B1 *9329:A1 5.33005e-05
4 *9330:B1 *9329:B1 7.43578e-06
5 *9330:B1 *9330:A1 9.90431e-05
6 *9330:B1 *9330:A2 0.000503913
7 *9330:B1 *9335:C1 1.52978e-05
8 *9330:B1 *612:60 0.00010326
9 *9330:B1 *730:35 0.0001399
10 *9065:B *9330:B1 0.000420197
11 *9819:A *9330:B1 0
12 *228:22 *9330:B1 7.49901e-05
*RES
1 *9329:Y *9330:B1 37.6179 
*END

*D_NET *448 0.000593115
*CONN
*I *9331:B I *D sky130_fd_sc_hd__or2_1
*I *9330:X O *D sky130_fd_sc_hd__o21a_1
*CAP
1 *9331:B 0.000151161
2 *9330:X 0.000151161
3 *9331:B *9332:A 0.000102207
4 *9331:B *9583:CLK 0
5 *9331:A *9331:B 0.000188586
6 *9718:D *9331:B 0
7 *98:10 *9331:B 0
*RES
1 *9330:X *9331:B 31.3143 
*END

*D_NET *449 0.00153387
*CONN
*I *9332:A I *D sky130_fd_sc_hd__clkbuf_1
*I *9331:X O *D sky130_fd_sc_hd__or2_1
*CAP
1 *9332:A 0.000564883
2 *9331:X 0.000564883
3 *9332:A *9660:CLK 0
4 *9332:A *9660:D 0
5 *9332:A *730:66 2.15245e-05
6 *9332:A *746:81 0.000167078
7 *9331:A *9332:A 0.000113298
8 *9331:B *9332:A 0.000102207
*RES
1 *9331:X *9332:A 38.0286 
*END

*D_NET *450 0.000931023
*CONN
*I *9335:A1 I *D sky130_fd_sc_hd__a211oi_1
*I *9333:Y O *D sky130_fd_sc_hd__inv_2
*CAP
1 *9335:A1 0.000234154
2 *9333:Y 0.000234154
3 *9335:A1 *9063:A 9.77274e-05
4 *9335:A1 *9336:B1_N 0
5 *9335:A1 *9807:A 5.7616e-05
6 *9335:A1 *612:54 6.98302e-05
7 *9335:A2 *9335:A1 2.59355e-05
8 *9584:D *9335:A1 2.89114e-05
9 *228:22 *9335:A1 0.000182694
*RES
1 *9333:Y *9335:A1 33.0821 
*END

*D_NET *451 0.000771385
*CONN
*I *9335:B1 I *D sky130_fd_sc_hd__a211oi_1
*I *9334:Y O *D sky130_fd_sc_hd__a21oi_1
*CAP
1 *9335:B1 0.000187855
2 *9334:Y 0.000187855
3 *9335:B1 *9063:A 9.60939e-05
4 *9335:B1 *9329:A1 0.00014285
5 *9335:A2 *9335:B1 7.83659e-05
6 *228:22 *9335:B1 7.83659e-05
*RES
1 *9334:Y *9335:B1 30.8143 
*END

*D_NET *452 0.000793262
*CONN
*I *9338:C I *D sky130_fd_sc_hd__and3_1
*I *9337:Y O *D sky130_fd_sc_hd__nor2_1
*CAP
1 *9338:C 0.000266459
2 *9337:Y 0.000266459
3 *9338:C *9172:A 4.87854e-05
4 *9338:C *9349:B1 2.56694e-05
5 *9338:C *751:24 7.6644e-05
6 *9337:B *9338:C 0.000108311
7 *9338:B *9338:C 9.33978e-07
*RES
1 *9337:Y *9338:C 31.4214 
*END

*D_NET *453 0.00234311
*CONN
*I *9339:A I *D sky130_fd_sc_hd__clkbuf_1
*I *9338:X O *D sky130_fd_sc_hd__and3_1
*CAP
1 *9339:A 0.000337552
2 *9338:X 0.000337552
3 *9339:A *9172:B 0.0002617
4 *9339:A *9343:A 1.04232e-05
5 *9339:A *599:30 9.65075e-05
6 *9339:A *675:12 2.44318e-05
7 *9339:A *751:24 0.000833
8 *9339:A *781:8 0.000306637
9 *9339:A *781:14 0.000135304
*RES
1 *9338:X *9339:A 40.0286 
*END

*D_NET *454 0.000126465
*CONN
*I *9811:A I *D sky130_fd_sc_hd__dlygate4sd3_1
*I *9340:Y O *D sky130_fd_sc_hd__nand2_1
*CAP
1 *9811:A 3.85809e-05
2 *9340:Y 3.85809e-05
3 *9811:A *9171:A 1.74352e-05
4 *9811:A *9340:B 3.18676e-05
*RES
1 *9340:Y *9811:A 19.5464 
*END

*D_NET *455 0.00124355
*CONN
*I *9342:B1_N I *D sky130_fd_sc_hd__a21boi_1
*I *9345:B1 I *D sky130_fd_sc_hd__o21a_1
*I *9341:X O *D sky130_fd_sc_hd__and3b_1
*CAP
1 *9342:B1_N 0
2 *9345:B1 0.000114755
3 *9341:X 0.000231904
4 *455:10 0.000346659
5 *9345:B1 *9347:A1 9.55252e-05
6 *455:10 *9341:B 1.76039e-05
7 *455:10 *719:14 0.000180039
8 *455:10 *751:24 4.97918e-05
9 *9589:D *455:10 0.000207268
*RES
1 *9341:X *455:10 25.1036 
2 *455:10 *9345:B1 11.4964 
3 *455:10 *9342:B1_N 9.3 
*END

*D_NET *456 0.00057835
*CONN
*I *9345:A1 I *D sky130_fd_sc_hd__o21a_1
*I *9343:Y O *D sky130_fd_sc_hd__nor2_1
*CAP
1 *9345:A1 0.000163396
2 *9343:Y 0.000163396
3 *9345:A1 *9344:A 1.39726e-05
4 *9345:A1 *9345:A2 0.000123295
5 *9344:B *9345:A1 5.33334e-05
6 *331:14 *9345:A1 2.39876e-05
7 *331:18 *9345:A1 3.69697e-05
*RES
1 *9343:Y *9345:A1 30.6 
*END

*D_NET *457 0.000528711
*CONN
*I *9345:A2 I *D sky130_fd_sc_hd__o21a_1
*I *9344:X O *D sky130_fd_sc_hd__and2_1
*CAP
1 *9345:A2 0.00012658
2 *9344:X 0.00012658
3 *9345:A2 *675:12 2.15245e-05
4 *9345:A2 *719:14 0.000123295
5 *9344:B *9345:A2 7.43578e-06
6 *9345:A1 *9345:A2 0.000123295
*RES
1 *9344:X *9345:A2 30.1893 
*END

*D_NET *458 0.00229572
*CONN
*I *9348:A I *D sky130_fd_sc_hd__or3_1
*I *9346:Y O *D sky130_fd_sc_hd__inv_2
*CAP
1 *9348:A 0.000754025
2 *9346:Y 0.000754025
3 *9348:A *9324:A 4.15914e-05
4 *9348:A *9324:B_N 0
5 *9348:A *9347:B1 0.000106533
6 *9348:A *9349:B1 3.07555e-05
7 *9348:A *9349:C1 4.53031e-05
8 *9348:A *9817:A 0.000181796
9 *9348:A *709:14 0
10 *9348:A *744:25 0
11 *9348:A *744:27 0
12 *9348:A *744:46 0.000227532
13 *9348:A *864:10 0
14 *9338:B *9348:A 5.96516e-05
15 *9346:A *9348:A 0
16 *9348:B *9348:A 5.52302e-05
17 *9592:D *9348:A 3.92757e-05
18 *332:33 *9348:A 0
*RES
1 *9346:Y *9348:A 40.4036 
*END

*D_NET *459 0.00202808
*CONN
*I *9348:C I *D sky130_fd_sc_hd__or3_1
*I *9347:X O *D sky130_fd_sc_hd__o21a_1
*CAP
1 *9348:C 0.000401688
2 *9347:X 0.000401688
3 *9348:C *9172:A 0.000148196
4 *9348:C *9347:A1 5.33433e-05
5 *9348:C *9347:B1 5.52238e-05
6 *9348:C *601:22 5.7616e-05
7 *9348:C *709:14 0.000271098
8 *9348:C *719:14 0.000282661
9 *9347:A2 *9348:C 1.55885e-05
10 *9591:D *9348:C 0.000120519
11 *445:23 *9348:C 0.000220455
*RES
1 *9347:X *9348:C 40.1357 
*END

*D_NET *460 0.00119122
*CONN
*I *9349:B1 I *D sky130_fd_sc_hd__o211a_1
*I *9348:X O *D sky130_fd_sc_hd__or3_1
*CAP
1 *9349:B1 0.000332761
2 *9348:X 0.000332761
3 *9349:B1 *9172:A 2.28598e-05
4 *9349:B1 *9341:B 7.6644e-05
5 *9349:B1 *9349:C1 5.58941e-05
6 *9338:C *9349:B1 2.56694e-05
7 *9341:C *9349:B1 0.000137983
8 *9348:A *9349:B1 3.07555e-05
9 *332:14 *9349:B1 0.000175892
*RES
1 *9348:X *9349:B1 41.7786 
*END

*D_NET *461 0.00559599
*CONN
*I *9362:A2 I *D sky130_fd_sc_hd__o22a_1
*I *9353:A2 I *D sky130_fd_sc_hd__o22a_1
*I *9359:A2 I *D sky130_fd_sc_hd__o22a_1
*I *9356:A2 I *D sky130_fd_sc_hd__o22a_1
*I *9350:Y O *D sky130_fd_sc_hd__nand2_1
*CAP
1 *9362:A2 0.000378821
2 *9353:A2 0.000238095
3 *9359:A2 0
4 *9356:A2 0
5 *9350:Y 0.000299604
6 *461:34 0.000985499
7 *461:23 0.000527442
8 *461:14 0.000458462
9 *9353:A2 *9353:B1 5.52238e-05
10 *9353:A2 *9353:B2 9.71197e-05
11 *9353:A2 *9361:A1 4.38265e-05
12 *9353:A2 *747:21 9.066e-05
13 *9353:A2 *747:28 6.29983e-05
14 *9353:A2 *801:18 0
15 *9362:A2 *9362:A1 6.05161e-06
16 *9362:A2 *9362:B1 5.27139e-05
17 *9362:A2 *9593:CLK 5.52238e-05
18 *461:14 *9356:B1 2.14757e-05
19 *461:14 *9594:RESET_B 0
20 *461:14 *600:29 4.51495e-05
21 *461:14 *744:223 0.000160287
22 *461:14 *873:20 0.000331316
23 *461:23 *9356:B1 0.00031119
24 *461:34 *1240:DIODE 5.5782e-05
25 *461:34 *9356:B1 5.52238e-05
26 *461:34 *9359:B2 0.000102545
27 *461:34 *616:20 0.000177323
28 *461:34 *747:10 0.000125731
29 *461:34 *747:21 0.000179656
30 *461:34 *801:18 0
31 *9275:A *461:14 2.28499e-05
32 *9593:D *9353:A2 2.44691e-05
33 *9595:D *461:14 0.000167063
34 *9595:D *461:23 5.52302e-05
35 *9596:D *9362:A2 5.33005e-05
36 *321:133 *461:34 0.000238769
37 *341:61 *461:14 5.33005e-05
38 *391:26 *9353:A2 6.35864e-05
*RES
1 *9350:Y *461:14 26.2107 
2 *461:14 *9356:A2 9.3 
3 *461:14 *461:23 3.42857 
4 *461:23 *9359:A2 9.3 
5 *461:23 *461:34 14.5714 
6 *461:34 *9353:A2 18.5143 
7 *461:34 *9362:A2 19.5321 
*END

*D_NET *462 0.00127875
*CONN
*I *9353:B1 I *D sky130_fd_sc_hd__o22a_1
*I *9351:Y O *D sky130_fd_sc_hd__a21boi_1
*CAP
1 *9353:B1 0.000273128
2 *9351:Y 0.000273128
3 *9353:B1 *9352:A2 0.000100488
4 *9353:B1 *9353:B2 3.51368e-05
5 *9353:B1 *9361:A1 1.15281e-05
6 *9353:B1 *735:72 0.000127068
7 *9353:B1 *735:87 2.11419e-05
8 *9353:B1 *747:28 2.06112e-05
9 *9353:A2 *9353:B1 5.52238e-05
10 *321:59 *9353:B1 0.000110151
11 *405:69 *9353:B1 0.000251148
12 *405:80 *9353:B1 0
*RES
1 *9351:Y *9353:B1 38.5773 
*END

*D_NET *463 0.000404477
*CONN
*I *9353:B2 I *D sky130_fd_sc_hd__o22a_1
*I *9352:X O *D sky130_fd_sc_hd__a31o_1
*CAP
1 *9353:B2 0.000109045
2 *9352:X 0.000109045
3 *9353:B2 *9353:A1 3.59524e-05
4 *9353:B2 *9361:A1 1.81774e-05
5 *9353:A2 *9353:B2 9.71197e-05
6 *9353:B1 *9353:B2 3.51368e-05
*RES
1 *9352:X *9353:B2 20.7964 
*END

*D_NET *464 0.00161833
*CONN
*I *9356:B1 I *D sky130_fd_sc_hd__o22a_1
*I *9354:Y O *D sky130_fd_sc_hd__a21oi_1
*CAP
1 *9356:B1 0.000372765
2 *9354:Y 0.000372765
3 *9356:B1 *9356:A1 6.94157e-05
4 *9356:B1 *9359:A1 0.000157144
5 *9356:B1 *9359:B2 9.80173e-05
6 *9356:B1 *730:82 2.56694e-05
7 *9275:B *9356:B1 0
8 *9354:A2 *9356:B1 5.62995e-05
9 *321:133 *9356:B1 7.83659e-05
10 *461:14 *9356:B1 2.14757e-05
11 *461:23 *9356:B1 0.00031119
12 *461:34 *9356:B1 5.52238e-05
*RES
1 *9354:Y *9356:B1 36.2071 
*END

*D_NET *465 0.000824592
*CONN
*I *9356:B2 I *D sky130_fd_sc_hd__o22a_1
*I *9355:X O *D sky130_fd_sc_hd__a31o_1
*CAP
1 *9356:B2 9.78381e-05
2 *9355:X 9.78381e-05
3 *9356:B2 *870:29 0.000314458
4 *9356:B2 *873:20 0.000314458
*RES
1 *9355:X *9356:B2 31.6714 
*END

*D_NET *466 0.000866103
*CONN
*I *9359:B1 I *D sky130_fd_sc_hd__o22a_1
*I *9357:Y O *D sky130_fd_sc_hd__a21boi_1
*CAP
1 *9359:B1 0.00022628
2 *9357:Y 0.00022628
3 *9359:B1 *616:20 7.50697e-05
4 *9359:B1 *736:36 0.0001399
5 *9359:B1 *736:58 0.000148196
6 *9354:A2 *9359:B1 6.05161e-06
7 *9357:A2 *9359:B1 4.43256e-05
*RES
1 *9357:Y *9359:B1 31.725 
*END

*D_NET *467 0.000520591
*CONN
*I *9359:B2 I *D sky130_fd_sc_hd__o22a_1
*I *9358:X O *D sky130_fd_sc_hd__a31o_1
*CAP
1 *9359:B2 8.28608e-05
2 *9358:X 8.28608e-05
3 *9359:B2 *9356:A1 5.17614e-05
4 *9359:B2 *9359:A1 0
5 *9359:B2 *616:20 0.000102545
6 *9356:B1 *9359:B2 9.80173e-05
7 *461:34 *9359:B2 0.000102545
*RES
1 *9358:X *9359:B2 30.3143 
*END

*D_NET *468 0.00218817
*CONN
*I *9362:B1 I *D sky130_fd_sc_hd__o22a_1
*I *9360:Y O *D sky130_fd_sc_hd__a21boi_1
*CAP
1 *9362:B1 0.000918605
2 *9360:Y 0.000918605
3 *9362:B1 *9360:B1_N 3.54839e-05
4 *9362:B1 *9362:B2 5.96031e-05
5 *9362:B1 *9593:CLK 1.92789e-05
6 *9362:B1 *870:29 4.87854e-05
7 *9360:A2 *9362:B1 0.000135093
8 *9362:A2 *9362:B1 5.27139e-05
*RES
1 *9360:Y *9362:B1 30.1357 
*END

*D_NET *469 0.000312797
*CONN
*I *9362:B2 I *D sky130_fd_sc_hd__o22a_1
*I *9361:X O *D sky130_fd_sc_hd__a31o_1
*CAP
1 *9362:B2 8.65569e-05
2 *9361:X 8.65569e-05
3 *9362:B2 *735:21 8.00806e-05
4 *9362:B2 *897:16 0
5 *9362:B1 *9362:B2 5.96031e-05
*RES
1 *9361:X *9362:B2 29.3679 
*END

*D_NET *470 0.00592151
*CONN
*I *9365:B I *D sky130_fd_sc_hd__or2_1
*I *9377:B I *D sky130_fd_sc_hd__or2_1
*I *9401:B I *D sky130_fd_sc_hd__or2_1
*I *9420:B I *D sky130_fd_sc_hd__nor2_1
*I *9364:B I *D sky130_fd_sc_hd__and2_1
*I *9363:X O *D sky130_fd_sc_hd__or2_1
*CAP
1 *9365:B 0
2 *9377:B 6.95061e-05
3 *9401:B 9.62933e-05
4 *9420:B 9.88688e-05
5 *9364:B 2.23854e-05
6 *9363:X 0.000534122
7 *470:33 0.00115391
8 *470:29 0.00117208
9 *470:23 0.000255988
10 *470:12 0.000668668
11 *9401:B *9399:A 0.000125731
12 *9401:B *9614:CLK 0.000104974
13 *9420:B *9282:A 0
14 *9420:B *9282:B 0
15 *9420:B *9399:A 5.52238e-05
16 *9420:B *9421:B1 3.46775e-05
17 *470:12 *9606:CLK 0
18 *470:23 *9364:A 9.60875e-05
19 *470:23 *9365:A 4.08637e-05
20 *470:23 *9369:B 4.27437e-05
21 *470:29 *9278:D 6.65398e-05
22 *470:33 *9399:A 1.21289e-05
23 *470:33 *9614:RESET_B 1.20135e-05
24 *470:33 *748:79 3.80385e-05
25 *9377:A *9377:B 6.75704e-05
26 *9377:A *470:33 8.25843e-06
27 *9398:A *9401:B 0
28 *9420:A *9420:B 2.32013e-05
29 *9606:D *470:12 0.000270243
30 *9614:D *470:33 0.0001409
31 *347:234 *470:29 0
32 *404:14 *470:12 0.000127971
33 *407:84 *470:12 0
34 *407:114 *470:23 0.000262504
35 *408:10 *470:29 0.000320024
36 *412:16 *9401:B 0
*RES
1 *9363:X *470:12 28.6214 
2 *470:12 *9364:B 9.72857 
3 *470:12 *470:23 3.42857 
4 *470:23 *470:29 13.0714 
5 *470:29 *470:33 11.9464 
6 *470:33 *9420:B 11.4964 
7 *470:33 *9401:B 20.55 
8 *470:29 *9377:B 10.8714 
9 *470:23 *9365:B 9.3 
*END

*D_NET *471 0.000406268
*CONN
*I *9366:A I *D sky130_fd_sc_hd__or3b_1
*I *9364:X O *D sky130_fd_sc_hd__and2_1
*CAP
1 *9366:A 0.000107354
2 *9364:X 0.000107354
3 *9366:A *748:67 3.92854e-05
4 *407:104 *9366:A 0.000124366
5 *407:114 *9366:A 2.79092e-05
*RES
1 *9364:X *9366:A 30.3143 
*END

*D_NET *472 0.00381522
*CONN
*I *9369:B I *D sky130_fd_sc_hd__or2_1
*I *9366:C_N I *D sky130_fd_sc_hd__or3b_1
*I *9368:B I *D sky130_fd_sc_hd__and2_1
*I *9365:X O *D sky130_fd_sc_hd__or2_1
*CAP
1 *9369:B 0.000479837
2 *9366:C_N 1.80578e-05
3 *9368:B 0.000287709
4 *9365:X 0
5 *472:8 0.000403176
6 *472:4 0.000577246
7 *9366:C_N *9278:B 3.57366e-05
8 *9366:C_N *9609:CLK 0
9 *9368:B *9278:A 0.000227539
10 *9368:B *731:28 0.000482607
11 *9368:B *748:67 0
12 *9368:B *875:8 0.000154762
13 *9368:B *875:25 2.48938e-05
14 *9368:B *882:20 9.90367e-05
15 *9369:B *9364:A 5.33005e-05
16 *9369:B *9365:A 5.33005e-05
17 *9369:B *9378:C_N 0.000182694
18 *9369:B *9379:A 0.00010096
19 *9369:B *475:8 9.90431e-05
20 *472:8 *748:67 0
21 *472:8 *875:25 0.000173083
22 *369:402 *9368:B 2.26424e-05
23 *369:402 *472:8 1.08359e-05
24 *404:14 *9368:B 0
25 *407:104 *9366:C_N 3.37729e-05
26 *407:114 *9369:B 0.000191362
27 *407:114 *472:8 5.33882e-05
28 *407:123 *9369:B 7.49387e-06
29 *470:23 *9369:B 4.27437e-05
*RES
1 *9365:X *472:4 9.3 
2 *472:4 *472:8 7.05357 
3 *472:8 *9368:B 21.3 
4 *472:8 *9366:C_N 14.5321 
5 *472:4 *9369:B 18.4607 
*END

*D_NET *473 0.000597004
*CONN
*I *9367:A I *D sky130_fd_sc_hd__clkbuf_1
*I *9366:X O *D sky130_fd_sc_hd__or3b_1
*CAP
1 *9367:A 0.000157007
2 *9366:X 0.000157007
3 *9367:A *748:67 7.83366e-05
4 *404:14 *9367:A 0.00015234
5 *407:104 *9367:A 5.23142e-05
*RES
1 *9366:X *9367:A 30.9036 
*END

*D_NET *474 0.000312051
*CONN
*I *9370:A I *D sky130_fd_sc_hd__or3b_1
*I *9368:X O *D sky130_fd_sc_hd__and2_1
*CAP
1 *9370:A 2.33878e-05
2 *9368:X 2.33878e-05
3 *9370:A *731:16 2.14658e-05
4 *9370:A *731:28 0.00010096
5 *9370:A *882:20 0.00014285
*RES
1 *9368:X *9370:A 19.9571 
*END

*D_NET *475 0.00302183
*CONN
*I *9376:A2 I *D sky130_fd_sc_hd__o21a_1
*I *9373:B I *D sky130_fd_sc_hd__and2_1
*I *9372:B I *D sky130_fd_sc_hd__nor2_1
*I *9370:C_N I *D sky130_fd_sc_hd__or3b_1
*I *9369:X O *D sky130_fd_sc_hd__or2_1
*CAP
1 *9376:A2 0
2 *9373:B 0.00012187
3 *9372:B 5.87311e-05
4 *9370:C_N 0.000234124
5 *9369:X 0
6 *475:36 0.000378588
7 *475:8 0.000490279
8 *475:4 0.000454142
9 *9370:C_N *9369:A 0
10 *9370:C_N *9378:C_N 9.69119e-06
11 *9370:C_N *882:20 2.21972e-05
12 *9372:B *9378:C_N 3.93986e-05
13 *9373:B *9373:A 5.7661e-06
14 *9373:B *883:24 7.72917e-05
15 *9373:B *883:36 6.56534e-05
16 *475:8 *9369:A 2.89016e-05
17 *475:8 *9378:C_N 2.44318e-05
18 *475:36 *9376:B1 3.18676e-05
19 *475:36 *748:134 0.00020112
20 *475:36 *883:36 0.000123082
21 *9369:B *475:8 9.90431e-05
22 *407:127 *9370:C_N 0.000312736
23 *407:151 *9370:C_N 0.000128161
24 *407:151 *9372:B 0.000114759
*RES
1 *9369:X *475:4 9.3 
2 *475:4 *475:8 7.08929 
3 *475:8 *9370:C_N 19.3893 
4 *475:8 *9372:B 15.4429 
5 *475:4 *475:36 13.8571 
6 *475:36 *9373:B 12.2286 
7 *475:36 *9376:A2 9.3 
*END

*D_NET *476 0.00138357
*CONN
*I *9371:A I *D sky130_fd_sc_hd__clkbuf_1
*I *9370:X O *D sky130_fd_sc_hd__or3b_1
*CAP
1 *9371:A 0.000260736
2 *9370:X 0.000260736
3 *9371:A *731:28 0.000226507
4 *9607:D *9371:A 4.43142e-05
5 *9609:D *9371:A 0.000249493
6 *347:234 *9371:A 0.000341788
*RES
1 *9370:X *9371:A 34.1536 
*END

*D_NET *477 0.00252091
*CONN
*I *9374:B I *D sky130_fd_sc_hd__or3_1
*I *9372:Y O *D sky130_fd_sc_hd__nor2_1
*CAP
1 *9374:B 0.000780273
2 *9372:Y 0.000780273
3 *9374:B *9374:C 0.000144623
4 *9374:B *9608:RESET_B 1.31235e-05
5 *9374:B *748:118 0
6 *9374:B *748:120 0
7 *9374:B *883:36 0.000802617
*RES
1 *9372:Y *9374:B 40.975 
*END

*D_NET *478 0.000552248
*CONN
*I *9374:C I *D sky130_fd_sc_hd__or3_1
*I *9373:X O *D sky130_fd_sc_hd__and2_1
*CAP
1 *9374:C 0.000203812
2 *9373:X 0.000203812
3 *9374:C *883:16 0
4 *9374:B *9374:C 0.000144623
*RES
1 *9373:X *9374:C 31.975 
*END

*D_NET *479 0.0026594
*CONN
*I *9375:A I *D sky130_fd_sc_hd__clkbuf_1
*I *9374:X O *D sky130_fd_sc_hd__or3_1
*CAP
1 *9375:A 0.000833526
2 *9374:X 0.000833526
3 *9375:A *9278:D 5.52238e-05
4 *9375:A *9378:A 0.000125731
5 *9375:A *9379:A 6.42338e-05
6 *9375:A *9607:RESET_B 4.15874e-05
7 *9375:A *9609:CLK 0
8 *9375:A *587:81 0
9 *9375:A *748:118 2.44318e-05
10 *9375:A *882:10 0.000136958
11 *9374:A *9375:A 1.74352e-05
12 *9607:D *9375:A 0
13 *9608:D *9375:A 0.000481448
14 *9609:D *9375:A 0
15 *407:127 *9375:A 3.06406e-05
16 *407:151 *9375:A 1.46624e-05
*RES
1 *9374:X *9375:A 42.5286 
*END

*D_NET *480 0.00133342
*CONN
*I *9378:A I *D sky130_fd_sc_hd__or3b_1
*I *9376:X O *D sky130_fd_sc_hd__o21a_1
*CAP
1 *9378:A 0.000462654
2 *9376:X 0.000462654
3 *9378:A *9278:C 0.000253476
4 *9378:A *9376:B1 2.89016e-05
5 *9375:A *9378:A 0.000125731
6 *9607:D *9378:A 0
7 *9609:D *9378:A 0
*RES
1 *9376:X *9378:A 34.2964 
*END

*D_NET *481 0.00481813
*CONN
*I *9384:A2 I *D sky130_fd_sc_hd__o21a_1
*I *9385:C I *D sky130_fd_sc_hd__or3_2
*I *9381:B I *D sky130_fd_sc_hd__nor2_1
*I *9380:B I *D sky130_fd_sc_hd__and2_1
*I *9378:C_N I *D sky130_fd_sc_hd__or3b_1
*I *9377:X O *D sky130_fd_sc_hd__or2_1
*CAP
1 *9384:A2 0.000218158
2 *9385:C 0.00015551
3 *9381:B 0.000197935
4 *9380:B 0
5 *9378:C_N 0.00036328
6 *9377:X 0.000499252
7 *481:34 0.000737403
8 *481:23 0.000241037
9 *481:8 0.00093777
10 *9378:C_N *9382:C 1.52978e-05
11 *9378:C_N *748:134 9.06926e-05
12 *9381:B *9380:A 7.31334e-05
13 *9381:B *9381:A 1.5471e-05
14 *9381:B *9382:C 0
15 *9381:B *9383:A 2.32463e-05
16 *9381:B *748:134 0.000118052
17 *9384:A2 *9384:A1 8.33559e-05
18 *9384:A2 *9391:A 0
19 *9384:A2 *9610:CLK 0
20 *9384:A2 *9611:RESET_B 0.000117189
21 *9384:A2 *748:134 5.72597e-05
22 *9385:C *9279:B 1.27782e-05
23 *9385:C *9385:A 4.22908e-05
24 *9385:C *9610:CLK 0.00010096
25 *481:8 *9382:C 9.71197e-05
26 *481:23 *9382:C 4.56594e-05
27 *481:23 *748:134 4.25716e-05
28 *481:34 *9380:A 0.000117421
29 *481:34 *9385:B 0
30 *481:34 *748:134 1.00375e-05
31 *1002:DIODE *9384:A2 6.72808e-05
32 *9369:B *9378:C_N 0.000182694
33 *9370:C_N *9378:C_N 9.69119e-06
34 *9372:B *9378:C_N 3.93986e-05
35 *9610:D *9385:C 8.86129e-06
36 *383:14 *9385:C 5.36152e-05
37 *407:123 *9378:C_N 1.92789e-05
38 *407:151 *9378:C_N 0
39 *407:151 *481:23 0
40 *475:8 *9378:C_N 2.44318e-05
*RES
1 *9377:X *481:8 19.675 
2 *481:8 *9378:C_N 21.6929 
3 *481:8 *481:23 1.64286 
4 *481:23 *9380:B 13.8 
5 *481:23 *481:34 3.5 
6 *481:34 *9381:B 18.2643 
7 *481:34 *9385:C 17.2286 
8 *481:34 *9384:A2 18.7107 
*END

*D_NET *482 0.000453054
*CONN
*I *9379:A I *D sky130_fd_sc_hd__clkbuf_1
*I *9378:X O *D sky130_fd_sc_hd__or3b_1
*CAP
1 *9379:A 0.00014393
2 *9378:X 0.00014393
3 *9369:B *9379:A 0.00010096
4 *9375:A *9379:A 6.42338e-05
5 *9609:D *9379:A 0
6 *347:234 *9379:A 0
*RES
1 *9378:X *9379:A 30.1893 
*END

*D_NET *483 9.72117e-05
*CONN
*I *9382:B I *D sky130_fd_sc_hd__or3_1
*I *9380:X O *D sky130_fd_sc_hd__and2_1
*CAP
1 *9382:B 3.7235e-05
2 *9380:X 3.7235e-05
3 *9382:B *9382:C 2.27416e-05
*RES
1 *9380:X *9382:B 19.1357 
*END

*D_NET *484 0.00106588
*CONN
*I *9382:C I *D sky130_fd_sc_hd__or3_1
*I *9381:Y O *D sky130_fd_sc_hd__nor2_1
*CAP
1 *9382:C 0.000345174
2 *9381:Y 0.000345174
3 *9382:C *9383:A 2.89016e-05
4 *9382:C *748:134 0.000102545
5 *9378:C_N *9382:C 1.52978e-05
6 *9381:B *9382:C 0
7 *9382:B *9382:C 2.27416e-05
8 *407:151 *9382:C 6.32633e-05
9 *481:8 *9382:C 9.71197e-05
10 *481:23 *9382:C 4.56594e-05
*RES
1 *9381:Y *9382:C 43.5643 
*END

*D_NET *485 0.00129193
*CONN
*I *9383:A I *D sky130_fd_sc_hd__clkbuf_1
*I *9382:X O *D sky130_fd_sc_hd__or3_1
*CAP
1 *9383:A 0.000550822
2 *9382:X 0.000550822
3 *9383:A *9380:A 2.27416e-05
4 *9383:A *9381:A 3.76337e-05
5 *9381:B *9383:A 2.32463e-05
6 *9382:C *9383:A 2.89016e-05
7 *407:157 *9383:A 7.77652e-05
*RES
1 *9382:X *9383:A 25.6179 
*END

*D_NET *486 0.00112739
*CONN
*I *9386:B I *D sky130_fd_sc_hd__or3b_1
*I *9384:X O *D sky130_fd_sc_hd__o21a_1
*CAP
1 *9386:B 0.000336964
2 *9384:X 0.000336964
3 *9386:B *9279:A 4.72818e-05
4 *9386:B *9384:B1 5.09422e-05
5 *9386:B *9387:A 9.60939e-05
6 *9386:B *9390:B 7.83659e-05
7 *9386:B *9393:B 0.000180777
*RES
1 *9384:X *9386:B 32.5821 
*END

*D_NET *487 0.00404126
*CONN
*I *9393:C I *D sky130_fd_sc_hd__or3_1
*I *9389:B I *D sky130_fd_sc_hd__and2_1
*I *9388:B I *D sky130_fd_sc_hd__nor2_1
*I *9392:A2 I *D sky130_fd_sc_hd__o21a_1
*I *9386:C_N I *D sky130_fd_sc_hd__or3b_1
*I *9385:X O *D sky130_fd_sc_hd__or3_2
*CAP
1 *9393:C 0
2 *9389:B 0.000294782
3 *9388:B 1.16062e-05
4 *9392:A2 0.000101888
5 *9386:C_N 2.58643e-05
6 *9385:X 0.000162323
7 *487:46 0.000388244
8 *487:42 0.000210436
9 *487:29 0.0003417
10 *487:14 0.000299419
11 *9386:C_N *9279:A 9.41642e-05
12 *9388:B *9393:B 5.52302e-05
13 *9388:B *590:104 5.52302e-05
14 *9389:B *9389:A 0.000102013
15 *9389:B *9391:A 0.000123791
16 *9389:B *590:104 1.52978e-05
17 *9392:A2 *9392:A1 5.52302e-05
18 *9392:A2 *9393:A 5.51819e-05
19 *9392:A2 *9393:B 0
20 *487:14 *9279:A 6.12335e-05
21 *487:14 *9385:B 2.49484e-05
22 *487:14 *9391:A 0.000168217
23 *487:29 *9279:B 7.90803e-05
24 *487:29 *9393:A 1.95435e-05
25 *487:42 *9393:A 0.000215553
26 *487:42 *9393:B 0.000103039
27 *487:46 *9384:B1 1.02504e-05
28 *487:46 *9390:B 6.5185e-05
29 *487:46 *9391:A 1.59782e-05
30 *487:46 *590:104 8.33463e-05
31 *1002:DIODE *9386:C_N 1.69961e-05
32 *1002:DIODE *487:14 0.000136951
33 *9252:B *9392:A2 0.000117261
34 *9252:C *9386:C_N 5.33005e-05
35 *9252:C *487:29 0.000193125
36 *9386:A *487:14 0.000180171
37 *9612:D *9389:B 1.77294e-05
38 *393:8 *487:42 5.52302e-05
39 *393:10 *487:29 3.17148e-05
40 *407:157 *487:14 0
*RES
1 *9385:X *487:14 22.9429 
2 *487:14 *9386:C_N 10.2464 
3 *487:14 *487:29 11.75 
4 *487:29 *9392:A2 11.5679 
5 *487:29 *487:42 3.35714 
6 *487:42 *487:46 6.75 
7 *487:46 *9388:B 14.3357 
8 *487:46 *9389:B 19.9071 
9 *487:42 *9393:C 9.3 
*END

*D_NET *488 0.00157169
*CONN
*I *9387:A I *D sky130_fd_sc_hd__clkbuf_1
*I *9386:X O *D sky130_fd_sc_hd__or3b_1
*CAP
1 *9387:A 0.000445075
2 *9386:X 0.000445075
3 *9387:A *9279:A 5.33005e-05
4 *9387:A *9384:A1 0.000153047
5 *9387:A *9611:CLK 0.000196743
6 *9387:A *886:17 0.000140933
7 *1002:DIODE *9387:A 2.13481e-06
8 *9386:B *9387:A 9.60939e-05
9 *9611:D *9387:A 3.92854e-05
*RES
1 *9386:X *9387:A 35.5643 
*END

*D_NET *489 0.00215427
*CONN
*I *9390:B I *D sky130_fd_sc_hd__or3_1
*I *9388:Y O *D sky130_fd_sc_hd__nor2_1
*CAP
1 *9390:B 0.000467247
2 *9388:Y 0.000467247
3 *9390:B *9279:B 0.000177821
4 *9390:B *9384:B1 2.9603e-05
5 *9390:B *9385:A 5.7234e-05
6 *9390:B *9390:C 1.3701e-05
7 *9390:B *9391:A 0.000473139
8 *9390:B *9393:B 4.18895e-05
9 *9390:B *887:53 5.52302e-05
10 *9386:B *9390:B 7.83659e-05
11 *9394:B *9390:B 0
12 *383:14 *9390:B 0.000221559
13 *407:163 *9390:B 6.05161e-06
14 *487:46 *9390:B 6.5185e-05
*RES
1 *9388:Y *9390:B 38.7964 
*END

*D_NET *490 0.00162903
*CONN
*I *9390:C I *D sky130_fd_sc_hd__or3_1
*I *9389:X O *D sky130_fd_sc_hd__and2_1
*CAP
1 *9390:C 0.000373108
2 *9389:X 0.000373108
3 *9390:C *9279:B 3.4323e-05
4 *9390:C *9389:A 0.000106552
5 *9390:C *808:33 4.43046e-05
6 *9390:C *887:10 0
7 *9390:C *888:10 0
8 *9252:B *9390:C 0.00019384
9 *9252:C *9390:C 0.000261234
10 *9390:B *9390:C 1.3701e-05
11 *9394:B *9390:C 4.43824e-05
12 *347:234 *9390:C 9.91086e-05
13 *383:14 *9390:C 5.33005e-05
14 *393:10 *9390:C 2.46318e-05
15 *407:163 *9390:C 7.43578e-06
*RES
1 *9389:X *9390:C 37.1893 
*END

*D_NET *491 0.00212916
*CONN
*I *9391:A I *D sky130_fd_sc_hd__clkbuf_1
*I *9390:X O *D sky130_fd_sc_hd__or3_1
*CAP
1 *9391:A 0.000527805
2 *9390:X 0.000527805
3 *9391:A *9279:B 0.000111326
4 *9391:A *9385:B 1.02504e-05
5 *9384:A2 *9391:A 0
6 *9386:A *9391:A 1.31516e-05
7 *9389:B *9391:A 0.000123791
8 *9390:B *9391:A 0.000473139
9 *9612:D *9391:A 3.69697e-05
10 *393:10 *9391:A 0.000120728
11 *487:14 *9391:A 0.000168217
12 *487:46 *9391:A 1.59782e-05
*RES
1 *9390:X *9391:A 40.0643 
*END

*D_NET *492 0.000336958
*CONN
*I *9394:A I *D sky130_fd_sc_hd__or3b_1
*I *9392:X O *D sky130_fd_sc_hd__o21a_1
*CAP
1 *9394:A 7.51446e-05
2 *9392:X 7.51446e-05
3 *9394:A *493:10 4.38128e-05
4 *9394:A *493:16 0.000142856
*RES
1 *9392:X *9394:A 20.3679 
*END

*D_NET *493 0.0036607
*CONN
*I *9394:C_N I *D sky130_fd_sc_hd__or3b_1
*I *9400:A2 I *D sky130_fd_sc_hd__o21a_1
*I *9396:B I *D sky130_fd_sc_hd__nor2_1
*I *9397:B I *D sky130_fd_sc_hd__and2_1
*I *9393:X O *D sky130_fd_sc_hd__or3_1
*CAP
1 *9394:C_N 0
2 *9400:A2 0.000191697
3 *9396:B 0
4 *9397:B 3.15561e-05
5 *9393:X 0.000412732
6 *493:24 0.000226933
7 *493:16 0.000545977
8 *493:10 0.000571635
9 *9397:B *9397:A 5.52302e-05
10 *9400:A2 *9279:C 5.03772e-05
11 *9400:A2 *9400:B1 0.000102197
12 *493:10 *9252:A 9.71197e-05
13 *493:10 *9393:A 0.000122666
14 *493:10 *888:23 2.59355e-05
15 *493:16 *9615:RESET_B 9.71197e-05
16 *493:16 *748:79 7.92879e-05
17 *493:16 *749:159 0
18 *493:16 *890:10 3.48235e-05
19 *493:24 *9397:A 2.14658e-05
20 *493:24 *748:79 0.000111805
21 *493:24 *889:12 0.000188586
22 *493:24 *889:16 2.72418e-05
23 *493:24 *889:29 0
24 *493:24 *890:10 2.94103e-05
25 *9252:C *493:10 6.28499e-05
26 *9394:A *493:10 4.38128e-05
27 *9394:A *493:16 0.000142856
28 *383:14 *9397:B 6.87574e-05
29 *383:14 *493:24 0.000271345
30 *404:14 *493:24 0
31 *410:6 *9397:B 4.72818e-05
*RES
1 *9393:X *493:10 15.2107 
2 *493:10 *493:16 8.625 
3 *493:16 *493:24 10.375 
4 *493:24 *9397:B 10.6571 
5 *493:24 *9396:B 9.3 
6 *493:16 *9400:A2 16.3893 
7 *493:10 *9394:C_N 9.3 
*END

*D_NET *494 0.000196864
*CONN
*I *9395:A I *D sky130_fd_sc_hd__clkbuf_1
*I *9394:X O *D sky130_fd_sc_hd__or3b_1
*CAP
1 *9395:A 5.0448e-05
2 *9394:X 5.0448e-05
3 *9395:A *748:89 4.79842e-05
4 *9395:A *749:159 4.79842e-05
*RES
1 *9394:X *9395:A 29.2429 
*END

*D_NET *495 0.000455299
*CONN
*I *9398:B I *D sky130_fd_sc_hd__or3_1
*I *9396:Y O *D sky130_fd_sc_hd__nor2_1
*CAP
1 *9398:B 0.00015037
2 *9396:Y 0.00015037
3 *9398:B *808:33 7.61932e-05
4 *9398:B *889:12 0
5 *404:14 *9398:B 7.83659e-05
*RES
1 *9396:Y *9398:B 29.9929 
*END

*D_NET *496 0.000484854
*CONN
*I *9398:C I *D sky130_fd_sc_hd__or3_1
*I *9397:X O *D sky130_fd_sc_hd__and2_1
*CAP
1 *9398:C 0.00015689
2 *9397:X 0.00015689
3 *9398:C *808:33 5.52302e-05
4 *9398:A *9398:C 1.02504e-05
5 *9401:A *9398:C 0
6 *404:14 *9398:C 5.03694e-05
7 *410:6 *9398:C 5.52238e-05
*RES
1 *9397:X *9398:C 30.6179 
*END

*D_NET *497 0.000993099
*CONN
*I *9399:A I *D sky130_fd_sc_hd__clkbuf_1
*I *9398:X O *D sky130_fd_sc_hd__or3_1
*CAP
1 *9399:A 0.000280256
2 *9398:X 0.000280256
3 *9399:A *9614:CLK 9.60875e-05
4 *9399:A *808:33 5.23057e-05
5 *9398:A *9399:A 0
6 *9401:A *9399:A 7.77751e-05
7 *9401:B *9399:A 0.000125731
8 *9420:B *9399:A 5.52238e-05
9 *9614:D *9399:A 1.33343e-05
10 *470:33 *9399:A 1.21289e-05
*RES
1 *9398:X *9399:A 32.7786 
*END

*D_NET *498 0.000367262
*CONN
*I *9402:A I *D sky130_fd_sc_hd__or3b_1
*I *9400:X O *D sky130_fd_sc_hd__o21a_1
*CAP
1 *9402:A 0.000133151
2 *9400:X 0.000133151
3 *9402:A *9403:A 0.00010096
*RES
1 *9400:X *9402:A 21.1893 
*END

*D_NET *499 0.0018874
*CONN
*I *9402:C_N I *D sky130_fd_sc_hd__or3b_1
*I *9405:B I *D sky130_fd_sc_hd__or2_1
*I *9404:B I *D sky130_fd_sc_hd__and2_1
*I *9401:X O *D sky130_fd_sc_hd__or2_1
*CAP
1 *9402:C_N 8.1499e-05
2 *9405:B 0.000149098
3 *9404:B 7.76437e-05
4 *9401:X 0.000179008
5 *499:20 0.000346353
6 *499:14 0.000380119
7 *9402:C_N *9403:A 8.01893e-05
8 *9404:B *9404:A 4.22908e-05
9 *9405:B *9408:B 0
10 *9405:B *9614:CLK 0
11 *9405:B *502:14 0
12 *499:14 *9614:CLK 0.00013906
13 *499:14 *808:33 2.89114e-05
14 *499:20 *9403:A 2.11368e-05
15 *499:20 *9404:A 0
16 *9402:B *499:20 3.40043e-05
17 *407:42 *9405:B 5.66157e-05
18 *407:42 *499:14 6.66939e-05
19 *407:44 *9404:B 0.000102197
20 *407:44 *499:20 2.59355e-05
21 *412:10 *499:14 7.6644e-05
*RES
1 *9401:X *499:14 22.7286 
2 *499:14 *499:20 2.625 
3 *499:20 *9404:B 11.4964 
4 *499:20 *9405:B 20.8536 
5 *499:14 *9402:C_N 11.0857 
*END

*D_NET *500 0.000741413
*CONN
*I *9403:A I *D sky130_fd_sc_hd__clkbuf_1
*I *9402:X O *D sky130_fd_sc_hd__or3b_1
*CAP
1 *9403:A 0.000174495
2 *9402:X 0.000174495
3 *9403:A *9400:B1 0
4 *9402:A *9403:A 0.00010096
5 *9402:B *9403:A 4.72818e-05
6 *9402:C_N *9403:A 8.01893e-05
7 *9615:D *9403:A 0.000142856
8 *499:20 *9403:A 2.11368e-05
*RES
1 *9402:X *9403:A 23.2786 
*END

*D_NET *501 0.000380686
*CONN
*I *9406:A I *D sky130_fd_sc_hd__or3b_1
*I *9404:X O *D sky130_fd_sc_hd__and2_1
*CAP
1 *9406:A 4.3427e-05
2 *9404:X 4.3427e-05
3 *9406:A *9409:B 0.000140933
4 *9406:A *502:14 5.52302e-05
5 *9410:B *9406:A 5.33433e-05
6 *407:44 *9406:A 4.43256e-05
*RES
1 *9404:X *9406:A 20.3679 
*END

*D_NET *502 0.00199951
*CONN
*I *9408:B I *D sky130_fd_sc_hd__and2_1
*I *9406:C_N I *D sky130_fd_sc_hd__or3b_1
*I *9409:B I *D sky130_fd_sc_hd__or2_1
*I *9405:X O *D sky130_fd_sc_hd__or2_1
*CAP
1 *9408:B 0.000249479
2 *9406:C_N 0
3 *9409:B 0.00014249
4 *9405:X 3.92213e-05
5 *502:14 0.000262759
6 *502:8 0.000408969
7 *9408:B *9408:A 2.28598e-05
8 *9408:B *9729:A 0
9 *9408:B *877:6 2.89016e-05
10 *9408:B *877:16 9.55563e-05
11 *9409:B *9281:B 5.24274e-05
12 *9409:B *9404:A 0.000146699
13 *9409:B *9407:A 6.78808e-06
14 *9409:B *9410:C_N 6.22615e-05
15 *9409:B *9412:A 9.25014e-06
16 *9409:B *876:10 1.41029e-05
17 *502:8 *749:159 5.52302e-05
18 *502:14 *9404:A 8.66063e-05
19 *502:14 *877:16 7.2754e-05
20 *9405:B *9408:B 0
21 *9405:B *502:14 0
22 *9406:A *9409:B 0.000140933
23 *9406:A *502:14 5.52302e-05
24 *9410:B *9409:B 3.30237e-05
25 *407:42 *502:14 0
26 *407:44 *502:14 1.39726e-05
*RES
1 *9405:X *502:8 14.3357 
2 *502:8 *502:14 7.39286 
3 *502:14 *9409:B 22.55 
4 *502:14 *9406:C_N 9.3 
5 *502:8 *9408:B 18.5679 
*END

*D_NET *503 0.000600371
*CONN
*I *9407:A I *D sky130_fd_sc_hd__clkbuf_1
*I *9406:X O *D sky130_fd_sc_hd__or3b_1
*CAP
1 *9407:A 0.000274432
2 *9406:X 0.000274432
3 *9407:A *9404:A 0
4 *9407:A *9410:C_N 7.34187e-06
5 *9407:A *9411:A 2.89114e-05
6 *9409:B *9407:A 6.78808e-06
7 *9410:B *9407:A 8.46507e-06
*RES
1 *9406:X *9407:A 22.8679 
*END

*D_NET *504 0.00107072
*CONN
*I *9410:A I *D sky130_fd_sc_hd__or3b_1
*I *9408:X O *D sky130_fd_sc_hd__and2_1
*CAP
1 *9410:A 0.000440366
2 *9408:X 0.000440366
3 *9410:A *9617:RESET_B 0.000167246
4 *9410:A *749:130 0
5 *9410:A *877:6 2.27416e-05
6 *9616:D *9410:A 0
7 *9617:D *9410:A 0
*RES
1 *9408:X *9410:A 34.6714 
*END

*D_NET *505 0.00449842
*CONN
*I *9413:B I *D sky130_fd_sc_hd__and2_1
*I *9417:C I *D sky130_fd_sc_hd__or3_1
*I *9416:A2 I *D sky130_fd_sc_hd__o21a_1
*I *9410:C_N I *D sky130_fd_sc_hd__or3b_1
*I *9412:B I *D sky130_fd_sc_hd__nor2_1
*I *9409:X O *D sky130_fd_sc_hd__or2_1
*CAP
1 *9413:B 0
2 *9417:C 0
3 *9416:A2 8.63374e-05
4 *9410:C_N 0.000144773
5 *9412:B 0.000172782
6 *9409:X 0
7 *505:52 0.000368871
8 *505:40 0.000485868
9 *505:19 0.000444183
10 *505:4 0.000268858
11 *9410:C_N *9412:A 8.89461e-05
12 *9410:C_N *9617:RESET_B 0.000241198
13 *9410:C_N *876:10 0
14 *9412:B *9409:A 0
15 *9412:B *9412:A 6.75704e-05
16 *9412:B *9414:B 0.000152209
17 *9416:A2 *9416:A1 0.000122418
18 *9416:A2 *9417:B 3.4041e-05
19 *9416:A2 *9418:A 3.34774e-05
20 *9416:A2 *9419:A 6.41489e-05
21 *9416:A2 *878:14 3.33174e-05
22 *505:19 *9414:B 0.000136951
23 *505:40 *9282:B 4.58194e-05
24 *505:40 *9412:A 0.000290979
25 *505:40 *9421:A1 0
26 *505:40 *9617:RESET_B 7.4826e-05
27 *505:40 *9619:RESET_B 9.60875e-05
28 *505:40 *748:197 7.50601e-05
29 *505:40 *878:42 2.14658e-05
30 *505:52 *9282:A 0
31 *505:52 *9282:B 0
32 *505:52 *9414:B 0.000148196
33 *505:52 *9414:C 6.83307e-05
34 *505:52 *9418:A 0.000123683
35 *505:52 *9419:A 0
36 *505:52 *9421:A2 0
37 *505:52 *9619:RESET_B 5.40041e-05
38 *505:52 *511:12 0.000117534
39 *505:52 *748:163 0.000148196
40 *9407:A *9410:C_N 7.34187e-06
41 *9409:B *9410:C_N 6.22615e-05
42 *9620:D *505:40 0.000218685
*RES
1 *9409:X *505:4 9.3 
2 *505:4 *9412:B 12.6393 
3 *505:4 *505:19 5.85714 
4 *505:19 *9410:C_N 17.6304 
5 *505:19 *505:40 10.875 
6 *505:40 *505:52 16.3839 
7 *505:52 *9416:A2 12.0589 
8 *505:52 *9417:C 9.3 
9 *505:40 *9413:B 9.3 
*END

*D_NET *506 0.000898992
*CONN
*I *9411:A I *D sky130_fd_sc_hd__clkbuf_1
*I *9410:X O *D sky130_fd_sc_hd__or3b_1
*CAP
1 *9411:A 0.00035546
2 *9410:X 0.00035546
3 *9411:A *9617:CLK 3.34366e-05
4 *9411:A *590:37 0.000125724
5 *9407:A *9411:A 2.89114e-05
6 *9616:D *9411:A 0
*RES
1 *9410:X *9411:A 33.7964 
*END

*D_NET *507 0.00237279
*CONN
*I *9414:B I *D sky130_fd_sc_hd__or3_1
*I *9412:Y O *D sky130_fd_sc_hd__nor2_1
*CAP
1 *9414:B 0.000576763
2 *9412:Y 0.000576763
3 *9414:B *9281:B 3.34295e-05
4 *9414:B *9281:C 3.34783e-05
5 *9414:B *9282:A 0
6 *9414:B *9282:B 0
7 *9414:B *9409:A 0.000219711
8 *9414:B *9412:A 0.000150735
9 *9414:B *9619:RESET_B 0.000161858
10 *9412:B *9414:B 0.000152209
11 *9418:B *9414:B 0.0001827
12 *505:19 *9414:B 0.000136951
13 *505:52 *9414:B 0.000148196
*RES
1 *9412:Y *9414:B 39.7964 
*END

*D_NET *508 0.000377156
*CONN
*I *9414:C I *D sky130_fd_sc_hd__or3_1
*I *9413:X O *D sky130_fd_sc_hd__and2_1
*CAP
1 *9414:C 0.000144264
2 *9413:X 0.000144264
3 *9414:C *9421:A2 4.2399e-06
4 *9414:C *511:12 1.02504e-05
5 *406:27 *9414:C 5.80706e-06
6 *407:23 *9414:C 0
7 *505:52 *9414:C 6.83307e-05
*RES
1 *9413:X *9414:C 30.2071 
*END

*D_NET *509 0.00295883
*CONN
*I *9415:A I *D sky130_fd_sc_hd__clkbuf_1
*I *9414:X O *D sky130_fd_sc_hd__or3_1
*CAP
1 *9415:A 0.00117989
2 *9414:X 0.00117989
3 *9415:A *9421:A2 6.87574e-05
4 *9415:A *9618:CLK 0.00012438
5 *9415:A *9618:RESET_B 0.000162019
6 *9398:A *9415:A 9.90431e-05
7 *9418:B *9415:A 3.80079e-05
8 *9618:D *9415:A 3.00207e-07
9 *9619:D *9415:A 0.000106542
*RES
1 *9414:X *9415:A 45.6893 
*END

*D_NET *510 0.000746242
*CONN
*I *9418:A I *D sky130_fd_sc_hd__or3b_1
*I *9416:X O *D sky130_fd_sc_hd__o21a_1
*CAP
1 *9418:A 0.000168809
2 *9416:X 0.000168809
3 *9418:A *9417:A 0.000125731
4 *9418:A *748:163 0.000125731
5 *9416:A2 *9418:A 3.34774e-05
6 *505:52 *9418:A 0.000123683
*RES
1 *9416:X *9418:A 31.0107 
*END

*D_NET *511 0.00132693
*CONN
*I *9421:A2 I *D sky130_fd_sc_hd__a211o_1
*I *9418:C_N I *D sky130_fd_sc_hd__or3b_1
*I *9417:X O *D sky130_fd_sc_hd__or3_1
*CAP
1 *9421:A2 0.000184133
2 *9418:C_N 0
3 *9417:X 0.000179905
4 *511:12 0.000364038
5 *9421:A2 *9282:A 3.51442e-05
6 *9421:A2 *9618:RESET_B 1.28326e-05
7 *9398:A *9421:A2 5.52302e-05
8 *9414:C *9421:A2 4.2399e-06
9 *9414:C *511:12 1.02504e-05
10 *9415:A *9421:A2 6.87574e-05
11 *9418:B *9421:A2 0.00018372
12 *406:27 *511:12 3.84478e-05
13 *407:23 *9421:A2 1.88048e-05
14 *407:38 *9421:A2 5.38886e-05
15 *505:52 *9421:A2 0
16 *505:52 *511:12 0.000117534
*RES
1 *9417:X *511:12 21.3 
2 *511:12 *9418:C_N 9.3 
3 *511:12 *9421:A2 23.05 
*END

*D_NET *512 0.00107887
*CONN
*I *9419:A I *D sky130_fd_sc_hd__clkbuf_1
*I *9418:X O *D sky130_fd_sc_hd__or3b_1
*CAP
1 *9419:A 0.000443323
2 *9418:X 0.000443323
3 *9419:A *9416:A1 2.44318e-05
4 *9419:A *9416:B1 2.06112e-05
5 *9419:A *9417:A 6.53083e-05
6 *9419:A *749:130 0
7 *9419:A *878:14 1.77247e-05
8 *9416:A2 *9419:A 6.41489e-05
9 *505:52 *9419:A 0
*RES
1 *9418:X *9419:A 38.8988 
*END

*D_NET *513 0.000320391
*CONN
*I *9421:B1 I *D sky130_fd_sc_hd__a211o_1
*I *9420:Y O *D sky130_fd_sc_hd__nor2_1
*CAP
1 *9421:B1 7.87064e-05
2 *9420:Y 7.87064e-05
3 *9421:B1 *9421:A1 7.30699e-05
4 *9420:A *9421:B1 5.52302e-05
5 *9420:B *9421:B1 3.46775e-05
*RES
1 *9420:Y *9421:B1 20.3857 
*END

*D_NET *514 0.00115792
*CONN
*I *9423:B I *D sky130_fd_sc_hd__or2_1
*I *9422:X O *D sky130_fd_sc_hd__o21a_1
*CAP
1 *9423:B 0.000332195
2 *9422:X 0.000332195
3 *9423:B *748:41 9.16074e-05
4 *9423:B *881:12 0.000125724
5 *9422:A1 *9423:B 0.000183726
6 *406:10 *9423:B 1.41029e-05
7 *412:18 *9423:B 0
8 *413:10 *9423:B 7.83659e-05
*RES
1 *9422:X *9423:B 32.9571 
*END

*D_NET *515 0.000996404
*CONN
*I *9424:A I *D sky130_fd_sc_hd__clkbuf_1
*I *9423:X O *D sky130_fd_sc_hd__or2_1
*CAP
1 *9424:A 0.000303546
2 *9423:X 0.000303546
3 *9424:A *9326:A 0
4 *9424:A *587:42 0.000154027
5 *9424:A *748:27 0
6 *9314:A *9424:A 0.000115268
7 *9621:D *9424:A 0
8 *322:338 *9424:A 8.07313e-05
9 *406:10 *9424:A 3.92854e-05
10 *413:10 *9424:A 0
11 *413:12 *9424:A 0
*RES
1 *9423:X *9424:A 34.3857 
*END

*D_NET *516 0.00104848
*CONN
*I *9426:B1 I *D sky130_fd_sc_hd__o31ai_1
*I *9425:Y O *D sky130_fd_sc_hd__inv_2
*CAP
1 *9426:B1 0.000297217
2 *9425:Y 0.000297217
3 *9426:B1 *9428:A0 8.00806e-05
4 *9426:B1 *9429:A 1.39726e-05
5 *9426:B1 *742:46 1.89507e-06
6 *9426:B1 *742:61 0.000126439
7 *9426:B1 *751:82 0
8 *9426:B1 *895:12 6.05161e-06
9 *347:103 *9426:B1 0.000225609
10 *347:109 *9426:B1 0
*RES
1 *9425:Y *9426:B1 32.5464 
*END

*D_NET *517 0.00126613
*CONN
*I *9428:A0 I *D sky130_fd_sc_hd__mux2_1
*I *9426:Y O *D sky130_fd_sc_hd__o31ai_1
*CAP
1 *9428:A0 0.000263724
2 *9426:Y 0.000263724
3 *9428:A0 *9622:RESET_B 5.43587e-05
4 *9428:A0 *584:38 4.50033e-05
5 *9428:A0 *742:61 0.000208112
6 *9428:A0 *744:184 3.25078e-05
7 *9428:A0 *751:71 9.37581e-05
8 *9428:A0 *751:82 2.8266e-06
9 *9428:A0 *865:12 9.41642e-05
10 *9428:A0 *866:26 7.90803e-05
11 *9426:B1 *9428:A0 8.00806e-05
12 *369:290 *9428:A0 4.87953e-05
*RES
1 *9426:Y *9428:A0 35.35 
*END

*D_NET *518 0.00600994
*CONN
*I *9428:S I *D sky130_fd_sc_hd__mux2_1
*I *9430:S I *D sky130_fd_sc_hd__mux2_1
*I *9432:S I *D sky130_fd_sc_hd__mux2_1
*I *9434:S I *D sky130_fd_sc_hd__mux2_1
*I *9427:Y O *D sky130_fd_sc_hd__nand2_2
*CAP
1 *9428:S 0.000131039
2 *9430:S 0.000189847
3 *9432:S 1.41579e-05
4 *9434:S 0.000317071
5 *9427:Y 0
6 *518:48 0.00049977
7 *518:31 0.000613398
8 *518:4 0.000737427
9 *9428:S *9168:C1 8.92599e-05
10 *9428:S *730:82 0.000192269
11 *9428:S *865:25 1.61893e-05
12 *9428:S *872:10 3.06406e-05
13 *9430:S *1063:DIODE 9.60939e-05
14 *9430:S *9168:C1 3.22692e-05
15 *9430:S *729:24 0.000175892
16 *9430:S *742:67 9.71197e-05
17 *9430:S *866:14 3.3283e-05
18 *9430:S *866:26 0.000271345
19 *9432:S *751:67 3.57366e-05
20 *9434:S *1065:DIODE 7.40526e-05
21 *9434:S *9186:A1 8.25843e-06
22 *9434:S *9195:A1 0.000128795
23 *9434:S *9195:B2 0.000146992
24 *9434:S *757:74 8.06261e-05
25 *9434:S *868:14 1.97695e-05
26 *9434:S *870:29 5.41797e-06
27 *9434:S *873:20 5.68684e-06
28 *9434:S *873:28 9.21418e-06
29 *518:31 *1064:DIODE 1.21258e-05
30 *518:31 *9186:A1 7.49387e-06
31 *518:31 *9195:B2 9.65075e-05
32 *518:31 *730:90 0.000525388
33 *518:31 *751:67 3.18676e-05
34 *518:31 *873:28 0.000109195
35 *518:48 *9162:A 8.00806e-05
36 *518:48 *9168:C1 0.000191403
37 *518:48 *9169:B 3.28804e-05
38 *518:48 *9623:CLK 0
39 *518:48 *730:82 0.000146474
40 *518:48 *751:67 3.58864e-05
41 *518:48 *751:71 3.22738e-05
42 *1062:DIODE *518:31 0.000178847
43 *9164:A1 *9428:S 0
44 *9167:C1 *9430:S 3.69047e-06
45 *9190:A2 *9434:S 5.33005e-05
46 *9201:B *9434:S 0.0001018
47 *341:61 *9434:S 7.6644e-05
48 *342:31 *518:31 0.000193125
49 *342:48 *518:31 4.56437e-05
50 *404:71 *9434:S 3.69047e-06
*RES
1 *9427:Y *518:4 9.3 
2 *518:4 *9434:S 25.3 
3 *518:4 *518:31 19.3929 
4 *518:31 *9432:S 9.72857 
5 *518:31 *518:48 9.66071 
6 *518:48 *9430:S 18.8714 
7 *518:48 *9428:S 17.0857 
*END

*D_NET *519 0.00105444
*CONN
*I *9429:A I *D sky130_fd_sc_hd__clkbuf_1
*I *9428:X O *D sky130_fd_sc_hd__mux2_1
*CAP
1 *9429:A 0.000368939
2 *9428:X 0.000368939
3 *9429:A *584:53 6.5185e-05
4 *9429:A *731:83 0.000103334
5 *9429:A *742:61 0
6 *9429:A *865:12 0.000126639
7 *9426:B1 *9429:A 1.39726e-05
8 *347:103 *9429:A 7.43578e-06
*RES
1 *9428:X *9429:A 34.3857 
*END

*D_NET *520 0.00125473
*CONN
*I *9431:A I *D sky130_fd_sc_hd__clkbuf_1
*I *9430:X O *D sky130_fd_sc_hd__mux2_1
*CAP
1 *9431:A 0.000311691
2 *9430:X 0.000311691
3 *9431:A *9433:A 0.000125731
4 *9431:A *729:24 7.6644e-05
5 *9431:A *742:67 5.80706e-06
6 *9431:A *742:83 2.35167e-05
7 *9431:A *744:167 0.000119508
8 *9431:A *744:175 2.88202e-05
9 *9431:A *751:52 0
10 *9431:A *751:71 0
11 *9431:A *867:18 1.99099e-05
12 *9431:A *867:35 0.000126439
13 *9623:D *9431:A 0.000104974
*RES
1 *9430:X *9431:A 35.725 
*END

*D_NET *521 0.000385964
*CONN
*I *9433:A I *D sky130_fd_sc_hd__clkbuf_1
*I *9432:X O *D sky130_fd_sc_hd__mux2_1
*CAP
1 *9433:A 0.000102558
2 *9432:X 0.000102558
3 *9433:A *744:175 1.76135e-05
4 *9433:A *751:71 3.38136e-05
5 *9433:A *867:35 3.69047e-06
6 *9431:A *9433:A 0.000125731
*RES
1 *9432:X *9433:A 29.7786 
*END

*D_NET *522 0.000899565
*CONN
*I *9435:A I *D sky130_fd_sc_hd__clkbuf_1
*I *9434:X O *D sky130_fd_sc_hd__mux2_1
*CAP
1 *9435:A 0.000179086
2 *9434:X 0.000179086
3 *9435:A *9181:A1 0.000110905
4 *9435:A *9203:B2 0.000225616
5 *9435:A *729:24 5.71472e-05
6 *9201:B *9435:A 2.89016e-05
7 *335:101 *9435:A 0.000118824
*RES
1 *9434:X *9435:A 31.9571 
*END

*D_NET *523 0.00129644
*CONN
*I *9437:A I *D sky130_fd_sc_hd__clkbuf_1
*I *9436:X O *D sky130_fd_sc_hd__mux2_1
*CAP
1 *9437:A 0.000437208
2 *9436:X 0.000437208
3 *9437:A *9323:A 5.33005e-05
4 *9437:A *9436:A1 6.07526e-05
5 *9437:A *9626:CLK 5.71472e-05
6 *9437:A *731:83 9.99644e-06
7 *9437:A *744:167 0
8 *9437:A *751:24 0
9 *9323:B *9437:A 0.00018066
10 *9325:A2 *9437:A 2.44318e-05
11 *9626:D *9437:A 3.57366e-05
*RES
1 *9436:X *9437:A 35.4036 
*END

*D_NET *524 0.000729501
*CONN
*I *9439:A I *D sky130_fd_sc_hd__clkbuf_1
*I *9438:X O *D sky130_fd_sc_hd__mux2_1
*CAP
1 *9439:A 0.000237698
2 *9438:X 0.000237698
3 *9439:A *920:DIODE 4.70048e-05
4 *9439:A *9193:A1 0.000139907
5 *9439:A *9810:A 0
6 *9439:A *602:21 2.79092e-05
7 *377:16 *9439:A 3.92854e-05
*RES
1 *9438:X *9439:A 32.6714 
*END

*D_NET *525 0.00123029
*CONN
*I *9441:A I *D sky130_fd_sc_hd__clkbuf_1
*I *9440:X O *D sky130_fd_sc_hd__mux2_1
*CAP
1 *9441:A 0.000316605
2 *9440:X 0.000316605
3 *9441:A *9114:A 0.000183713
4 *9441:A *9628:RESET_B 0.000153047
5 *9441:A *9797:A 0.000117468
6 *9441:A *820:65 0.00014285
7 *9151:B1 *9441:A 0
*RES
1 *9440:X *9441:A 34.7964 
*END

*D_NET *526 0.000341649
*CONN
*I *9443:A I *D sky130_fd_sc_hd__clkbuf_1
*I *9442:X O *D sky130_fd_sc_hd__mux2_1
*CAP
1 *9443:A 7.63802e-05
2 *9442:X 7.63802e-05
3 *1026:DIODE *9443:A 3.57366e-05
4 *322:112 *9443:A 1.3701e-05
5 *347:22 *9443:A 9.25014e-06
6 *347:24 *9443:A 7.83587e-05
7 *347:28 *9443:A 1.02504e-05
8 *369:56 *9443:A 4.15914e-05
*RES
1 *9442:X *9443:A 29.6714 
*END

*D_NET *527 0.000503731
*CONN
*I *9445:A I *D sky130_fd_sc_hd__clkbuf_1
*I *9444:X O *D sky130_fd_sc_hd__mux2_1
*CAP
1 *9445:A 0.000133349
2 *9444:X 0.000133349
3 *9445:A *9550:S 1.24368e-05
4 *347:78 *9445:A 0.000224596
*RES
1 *9444:X *9445:A 21.5107 
*END

*D_NET *528 0.00114288
*CONN
*I *9447:A I *D sky130_fd_sc_hd__clkbuf_1
*I *9446:X O *D sky130_fd_sc_hd__mux2_1
*CAP
1 *9447:A 0.000444543
2 *9446:X 0.000444543
3 *9447:A *9446:A0 0
4 *9447:A *755:14 9.90367e-05
5 *9447:A *820:25 0
6 *9447:A *895:120 0.000154762
*RES
1 *9446:X *9447:A 35.4571 
*END

*D_NET *529 0.00177708
*CONN
*I *9449:A I *D sky130_fd_sc_hd__clkbuf_1
*I *9448:X O *D sky130_fd_sc_hd__mux2_1
*CAP
1 *9449:A 0.000443285
2 *9448:X 0.000443285
3 *9449:A *895:122 0.000313608
4 *9632:D *9449:A 1.3142e-05
5 *322:102 *9449:A 0.000102776
6 *322:104 *9449:A 0.000186662
7 *322:112 *9449:A 5.71472e-05
8 *369:82 *9449:A 0.00021717
*RES
1 *9448:X *9449:A 36.3143 
*END

*D_NET *530 0.000596128
*CONN
*I *9451:A I *D sky130_fd_sc_hd__clkbuf_1
*I *9450:X O *D sky130_fd_sc_hd__mux2_1
*CAP
1 *9451:A 0.00017962
2 *9450:X 0.00017962
3 *9451:A *9450:A0 0.000142725
4 *9451:A *566:324 9.41642e-05
5 *9451:A *828:10 0
*RES
1 *9450:X *9451:A 30.4929 
*END

*D_NET *531 0.00209486
*CONN
*I *9453:A I *D sky130_fd_sc_hd__clkbuf_1
*I *9452:X O *D sky130_fd_sc_hd__mux2_1
*CAP
1 *9453:A 0.000360355
2 *9452:X 0.000360355
3 *9453:A *9149:B1 1.02504e-05
4 *9453:A *537:28 0
5 *9453:A *584:197 0
6 *9453:A *595:10 0.00024603
7 *9453:A *609:36 0.000186756
8 *9453:A *741:62 0.000230475
9 *369:190 *9453:A 0.000188586
10 *369:201 *9453:A 0.000512047
*RES
1 *9452:X *9453:A 38.6714 
*END

*D_NET *532 0.000315077
*CONN
*I *9455:A I *D sky130_fd_sc_hd__clkbuf_1
*I *9454:X O *D sky130_fd_sc_hd__mux2_1
*CAP
1 *9455:A 8.13722e-05
2 *9454:X 8.13722e-05
3 *9455:A *756:10 0.000152333
4 *9455:A *798:20 0
*RES
1 *9454:X *9455:A 29.5464 
*END

*D_NET *533 0.00112466
*CONN
*I *9458:A I *D sky130_fd_sc_hd__clkbuf_1
*I *9457:X O *D sky130_fd_sc_hd__mux2_1
*CAP
1 *9458:A 0.000265833
2 *9457:X 0.000265833
3 *9458:A *743:96 0
4 *9080:B *9458:A 9.7659e-05
5 *9637:D *9458:A 0.000180165
6 *344:144 *9458:A 4.66511e-05
7 *344:146 *9458:A 0.000268514
*RES
1 *9457:X *9458:A 33.4393 
*END

*D_NET *534 0.000466311
*CONN
*I *9460:A I *D sky130_fd_sc_hd__clkbuf_1
*I *9459:X O *D sky130_fd_sc_hd__mux2_1
*CAP
1 *9460:A 5.79149e-05
2 *9459:X 5.79149e-05
3 *9460:A *9086:A 0.000185643
4 *319:24 *9460:A 0.000164839
*RES
1 *9459:X *9460:A 21.1 
*END

*D_NET *535 0.0012657
*CONN
*I *9462:A1 I *D sky130_fd_sc_hd__a21o_1
*I *9461:Y O *D sky130_fd_sc_hd__inv_2
*CAP
1 *9462:A1 0.000265206
2 *9461:Y 0.000265206
3 *9462:A1 *9532:A 0.000132141
4 *9462:A1 *9656:RESET_B 5.33005e-05
5 *9462:A1 *588:29 4.75428e-05
6 *9462:A1 *814:37 2.59355e-05
7 *9462:A1 *814:41 5.66157e-05
8 *299:27 *9462:A1 0.000384995
9 *442:152 *9462:A1 2.26327e-05
10 *442:156 *9462:A1 1.21258e-05
*RES
1 *9461:Y *9462:A1 34.0643 
*END

*D_NET *536 0.00525585
*CONN
*I *9483:A I *D sky130_fd_sc_hd__buf_4
*I *9868:A I *D sky130_fd_sc_hd__buf_1
*I *9465:B I *D sky130_fd_sc_hd__nor2_2
*I *9463:Y O *D sky130_fd_sc_hd__nor4b_2
*CAP
1 *9483:A 0.000643229
2 *9868:A 0.000144698
3 *9465:B 7.90712e-05
4 *9463:Y 0
5 *536:12 0.000759247
6 *536:4 0.00117871
7 *9465:B *9480:B2 1.39726e-05
8 *9465:B *9760:A 0.000140126
9 *9465:B *796:42 0.000141445
10 *9483:A *9482:B1 0.000148189
11 *9483:A *9655:D 2.56601e-05
12 *9483:A *9737:A 5.52302e-05
13 *9483:A *598:10 5.33433e-05
14 *9483:A *740:101 3.03813e-05
15 *9483:A *743:110 0.000288162
16 *9868:A *9236:A1 9.15604e-05
17 *536:12 *9236:A1 6.54045e-05
18 *536:12 *9463:D_N 2.58821e-05
19 *536:12 *9465:A 0.000186662
20 *536:12 *9560:A1 0.000309266
21 *536:12 *566:22 4.13496e-05
22 *536:12 *566:358 6.57914e-05
23 *536:12 *807:31 5.57084e-05
24 *9221:A2 *9868:A 0.000177375
25 *9221:A2 *536:12 0.000122814
26 *344:220 *9465:B 0
27 *369:201 *536:12 5.52302e-05
28 *372:18 *9483:A 0.000357343
*RES
1 *9463:Y *536:4 9.3 
2 *536:4 *536:12 14.8036 
3 *536:12 *9465:B 16.55 
4 *536:12 *9868:A 17.3179 
5 *536:4 *9483:A 33.8179 
*END

*D_NET *537 0.0354028
*CONN
*I *9482:A2 I *D sky130_fd_sc_hd__a22o_1
*I *1104:DIODE I *D sky130_fd_sc_hd__diode_2
*I *9480:A2 I *D sky130_fd_sc_hd__a22o_1
*I *1102:DIODE I *D sky130_fd_sc_hd__diode_2
*I *9504:A3 I *D sky130_fd_sc_hd__a31o_1
*I *1138:DIODE I *D sky130_fd_sc_hd__diode_2
*I *1100:DIODE I *D sky130_fd_sc_hd__diode_2
*I *9479:A2 I *D sky130_fd_sc_hd__a22o_1
*I *1098:DIODE I *D sky130_fd_sc_hd__diode_2
*I *9478:A2 I *D sky130_fd_sc_hd__a22o_1
*I *9477:A2 I *D sky130_fd_sc_hd__a22o_1
*I *1096:DIODE I *D sky130_fd_sc_hd__diode_2
*I *1094:DIODE I *D sky130_fd_sc_hd__diode_2
*I *9475:A2 I *D sky130_fd_sc_hd__a22o_1
*I *1090:DIODE I *D sky130_fd_sc_hd__diode_2
*I *9468:A2 I *D sky130_fd_sc_hd__a22o_1
*I *1078:DIODE I *D sky130_fd_sc_hd__diode_2
*I *9467:A2 I *D sky130_fd_sc_hd__a22o_1
*I *1076:DIODE I *D sky130_fd_sc_hd__diode_2
*I *9470:A2 I *D sky130_fd_sc_hd__a22o_1
*I *1080:DIODE I *D sky130_fd_sc_hd__diode_2
*I *1082:DIODE I *D sky130_fd_sc_hd__diode_2
*I *9469:A2 I *D sky130_fd_sc_hd__a22o_1
*I *9472:A2 I *D sky130_fd_sc_hd__a22o_1
*I *1088:DIODE I *D sky130_fd_sc_hd__diode_2
*I *9473:A2 I *D sky130_fd_sc_hd__a22o_1
*I *9471:A2 I *D sky130_fd_sc_hd__a22o_1
*I *1084:DIODE I *D sky130_fd_sc_hd__diode_2
*I *1086:DIODE I *D sky130_fd_sc_hd__diode_2
*I *9474:A2 I *D sky130_fd_sc_hd__a22o_1
*I *1092:DIODE I *D sky130_fd_sc_hd__diode_2
*I *9476:A2 I *D sky130_fd_sc_hd__a22o_1
*I *9464:X O *D sky130_fd_sc_hd__buf_4
*CAP
1 *9482:A2 0.000266448
2 *1104:DIODE 0
3 *9480:A2 1.40355e-05
4 *1102:DIODE 0.000416034
5 *9504:A3 0.000182765
6 *1138:DIODE 0
7 *1100:DIODE 0.000163049
8 *9479:A2 4.69356e-05
9 *1098:DIODE 0
10 *9478:A2 0
11 *9477:A2 2.30855e-05
12 *1096:DIODE 0
13 *1094:DIODE 7.22483e-05
14 *9475:A2 7.4427e-05
15 *1090:DIODE 0
16 *9468:A2 0
17 *1078:DIODE 0.000152618
18 *9467:A2 0.000218143
19 *1076:DIODE 0
20 *9470:A2 5.75823e-05
21 *1080:DIODE 0.000131256
22 *1082:DIODE 6.6299e-05
23 *9469:A2 1.08934e-05
24 *9472:A2 0
25 *1088:DIODE 0.000105972
26 *9473:A2 4.39705e-05
27 *9471:A2 0
28 *1084:DIODE 0
29 *1086:DIODE 6.44068e-05
30 *9474:A2 2.23854e-05
31 *1092:DIODE 0
32 *9476:A2 1.03356e-05
33 *9464:X 0
34 *537:360 0.000626733
35 *537:336 0.000273587
36 *537:310 0.000279242
37 *537:303 0.000534841
38 *537:227 0.000386015
39 *537:176 0.000284896
40 *537:167 0.000301561
41 *537:140 0.000175802
42 *537:138 0.000115996
43 *537:125 0.000248739
44 *537:107 8.41467e-05
45 *537:105 0.000318039
46 *537:103 0.000489438
47 *537:99 0.000524973
48 *537:97 0.000429522
49 *537:95 0.00032669
50 *537:93 0.000715597
51 *537:80 0.000669927
52 *537:76 0.000279578
53 *537:69 0.000212038
54 *537:65 0.000241685
55 *537:63 0.000417019
56 *537:50 0.000838555
57 *537:42 0.000590353
58 *537:40 0.000350407
59 *537:34 0.000483398
60 *537:28 0.00166507
61 *537:20 0.00130098
62 *537:16 0.000410485
63 *537:14 0.000188803
64 *537:4 0.000445622
65 *1078:DIODE *1079:DIODE 0.000206789
66 *1078:DIODE *9468:A1 2.44318e-05
67 *1078:DIODE *9468:B2 9.76419e-05
68 *1080:DIODE *9469:A1 0.000318107
69 *1082:DIODE *1083:DIODE 5.10822e-05
70 *1086:DIODE *539:144 0.000105163
71 *1088:DIODE *9472:A1 0
72 *1088:DIODE *9473:A1 0
73 *1094:DIODE *854:12 5.33334e-05
74 *1094:DIODE *854:21 6.05161e-06
75 *1100:DIODE *9557:A 5.71472e-05
76 *1100:DIODE *739:221 0.000256875
77 *1102:DIODE *539:37 3.17163e-05
78 *1102:DIODE *566:44 6.19181e-05
79 *1102:DIODE *741:12 0.000268027
80 *1102:DIODE *829:10 9.90431e-05
81 *9467:A2 *9467:A1 3.34295e-05
82 *9467:A2 *9467:B1 1.97527e-05
83 *9467:A2 *539:246 9.60875e-05
84 *9467:A2 *566:119 2.61337e-05
85 *9467:A2 *584:221 0
86 *9467:A2 *704:8 0
87 *9467:A2 *817:23 0
88 *9469:A2 *9469:A1 3.57366e-05
89 *9470:A2 *9470:A1 5.71472e-05
90 *9470:A2 *9470:B1 1.24368e-05
91 *9470:A2 *9471:B2 0
92 *9470:A2 *623:14 2.89114e-05
93 *9473:A2 *9473:A1 0.000318101
94 *9473:A2 *539:131 0.000274288
95 *9473:A2 *539:180 5.52302e-05
96 *9474:A2 *775:14 0
97 *9475:A2 *9475:A1 2.89016e-05
98 *9475:A2 *854:21 0.000144773
99 *9476:A2 *9476:A1 3.18676e-05
100 *9476:A2 *539:292 5.52238e-05
101 *9479:A2 *539:72 8.15939e-05
102 *9479:A2 *738:132 0.000153047
103 *9480:A2 *539:37 2.89114e-05
104 *9482:A2 *9221:A1 0.000150625
105 *9482:A2 *9482:A1 0.000125731
106 *9482:A2 *737:10 0.000213558
107 *9482:A2 *737:22 0
108 *9504:A3 *9512:B1 0
109 *9504:A3 *9513:A3 0
110 *9504:A3 *9513:B1 0
111 *9504:A3 *784:37 4.1331e-06
112 *9504:A3 *796:42 8.50152e-05
113 *9504:A3 *863:54 0.000199698
114 *537:14 *737:10 5.40949e-05
115 *537:14 *737:22 5.52302e-05
116 *537:14 *785:33 8.359e-05
117 *537:14 *796:42 0.00018372
118 *537:16 *796:42 5.52302e-05
119 *537:20 *796:42 0.000780685
120 *537:28 *9145:B1 0.000273571
121 *537:28 *9149:B1 0
122 *537:28 *9233:A1 0
123 *537:28 *584:197 0
124 *537:28 *818:43 0.000312549
125 *537:28 *818:62 7.77326e-05
126 *537:28 *821:10 6.74932e-05
127 *537:28 *821:25 0.000394005
128 *537:28 *863:44 0
129 *537:34 *9652:RESET_B 2.52688e-05
130 *537:34 *539:80 5.80706e-06
131 *537:34 *818:43 0
132 *537:34 *863:44 0.000142082
133 *537:40 *9477:A1 4.69993e-05
134 *537:40 *9477:B1 5.52238e-05
135 *537:40 *9477:B2 0
136 *537:40 *9731:A 0.000276211
137 *537:40 *539:80 9.07864e-05
138 *537:40 *539:82 7.9524e-05
139 *537:40 *611:34 0.00048746
140 *537:40 *863:44 0.000170503
141 *537:42 *611:34 0.000144773
142 *537:50 *9476:B2 0
143 *537:50 *9477:B1 0
144 *537:50 *9716:RESET_B 0
145 *537:50 *585:33 7.66473e-05
146 *537:50 *611:34 9.90431e-05
147 *537:50 *738:84 0
148 *537:50 *739:276 0
149 *537:50 *894:22 0
150 *537:63 *9476:A1 0.000119193
151 *537:63 *9709:CLK 0
152 *537:63 *539:292 0.000188754
153 *537:63 *738:84 0
154 *537:63 *854:12 0
155 *537:65 *9709:CLK 0
156 *537:65 *854:12 0
157 *537:69 *9475:B1 0
158 *537:69 *9709:CLK 0
159 *537:80 *9475:B1 0.000185643
160 *537:80 *539:90 8.66063e-05
161 *537:80 *539:92 0.000126572
162 *537:80 *775:14 9.60771e-05
163 *537:93 *9546:A1 0.000664641
164 *537:93 *9547:A 0.000232399
165 *537:93 *539:90 1.33343e-05
166 *537:93 *566:76 0.000218412
167 *537:93 *566:86 8.00431e-05
168 *537:93 *566:111 2.78608e-05
169 *537:93 *584:221 0.000276211
170 *537:93 *584:234 4.18895e-05
171 *537:93 *594:8 9.90431e-05
172 *537:93 *775:14 0.000212382
173 *537:97 *566:76 0
174 *537:97 *566:119 1.76039e-05
175 *537:97 *704:8 0
176 *537:99 *9644:RESET_B 0
177 *537:99 *623:14 0.000680599
178 *537:99 *704:8 0
179 *537:99 *738:10 6.44636e-05
180 *537:99 *738:17 0.000158934
181 *537:99 *738:28 4.57445e-05
182 *537:103 *9644:RESET_B 0
183 *537:103 *738:10 6.63569e-05
184 *537:103 *739:32 0
185 *537:105 *539:144 4.59075e-05
186 *537:105 *539:148 0.000358971
187 *537:105 *738:10 5.52238e-05
188 *537:107 *539:144 2.89016e-05
189 *537:125 *9470:B2 0
190 *537:125 *9472:A1 0
191 *537:125 *9472:B2 4.1331e-06
192 *537:125 *738:10 0
193 *537:138 *9471:A1 1.3701e-05
194 *537:138 *9472:A1 0.00023155
195 *537:138 *9473:A1 1.73305e-05
196 *537:138 *539:184 4.88637e-05
197 *537:138 *539:193 9.81459e-05
198 *537:140 *9473:A1 0.000186669
199 *537:140 *539:180 4.38128e-05
200 *537:140 *539:184 7.32955e-05
201 *537:167 *539:148 0.000111451
202 *537:176 *9469:A1 0.000139907
203 *537:176 *539:148 1.74352e-05
204 *537:227 *9468:A1 0.000435186
205 *537:227 *9564:A0 0.000317082
206 *537:227 *566:119 0.000399848
207 *537:227 *566:128 0.000274288
208 *537:227 *584:234 0.000356035
209 *537:303 *9652:RESET_B 6.02164e-05
210 *537:303 *592:55 4.75723e-05
211 *537:303 *738:132 0
212 *537:303 *739:221 0.000232399
213 *537:310 *739:221 8.46829e-05
214 *537:360 *539:31 3.49114e-05
215 *537:360 *539:37 0.000165761
216 *537:360 *566:44 5.9378e-05
217 *537:360 *785:33 6.58945e-05
218 *989:DIODE *537:28 0.000128154
219 *9145:B2 *537:28 5.59013e-05
220 *9154:A2 *537:28 0.000117421
221 *9221:A2 *9482:A2 1.41029e-05
222 *9453:A *537:28 0
223 *9646:D *537:138 1.02821e-05
224 *9651:D *537:42 1.56e-05
225 *9651:D *537:50 0.00025479
226 *9654:D *1102:DIODE 0
227 *9700:D *9480:A2 5.52302e-05
228 *9700:D *537:360 8.00806e-05
229 *9774:A *1088:DIODE 7.83659e-05
230 *9796:A *9470:A2 0
231 *9843:A *1078:DIODE 5.7661e-06
232 *9843:A *537:227 0.000144773
233 *166:18 *537:50 8.00806e-05
234 *304:14 *537:28 7.6644e-05
235 *305:12 *537:28 5.80906e-05
236 *337:253 *537:14 1.65558e-05
237 *337:261 *9504:A3 1.98839e-05
238 *344:220 *537:14 0.000172309
239 *344:220 *537:16 4.27935e-05
240 *344:220 *537:20 0.00136475
241 *344:239 *9504:A3 0.000139907
242 *344:239 *537:28 3.34366e-05
243 *344:239 *537:336 0.000137931
244 *441:10 *9482:A2 0.000159177
245 *441:10 *537:14 0.000140933
*RES
1 *9464:X *537:4 9.3 
2 *537:4 *537:14 14.375 
3 *537:14 *537:16 0.535714 
4 *537:16 *537:20 17.3571 
5 *537:20 *537:28 28.4643 
6 *537:28 *537:34 7.80357 
7 *537:34 *537:40 13.8214 
8 *537:40 *537:42 1.35714 
9 *537:42 *537:50 20.0893 
10 *537:50 *9476:A2 9.83571 
11 *537:50 *537:63 10.75 
12 *537:63 *537:65 1.03571 
13 *537:65 *537:69 6.14286 
14 *537:69 *1092:DIODE 9.3 
15 *537:69 *537:76 1.35714 
16 *537:76 *537:80 4.66071 
17 *537:80 *9474:A2 9.72857 
18 *537:80 *537:93 15.875 
19 *537:93 *537:95 4.5 
20 *537:95 *537:97 1.94643 
21 *537:97 *537:99 10.4464 
22 *537:99 *537:103 7.05357 
23 *537:103 *537:105 4.23214 
24 *537:105 *537:107 0.535714 
25 *537:107 *1086:DIODE 11.0679 
26 *537:107 *1084:DIODE 9.3 
27 *537:105 *537:125 11.25 
28 *537:125 *9471:A2 9.3 
29 *537:125 *537:138 3.98214 
30 *537:138 *537:140 1.76786 
31 *537:140 *9473:A2 12.3 
32 *537:140 *1088:DIODE 20.2464 
33 *537:138 *9472:A2 9.3 
34 *537:103 *537:167 3.73214 
35 *537:167 *9469:A2 10.0321 
36 *537:167 *537:176 1.76786 
37 *537:176 *1082:DIODE 19.6393 
38 *537:176 *1080:DIODE 12.3 
39 *537:99 *9470:A2 15.175 
40 *537:97 *1076:DIODE 13.8 
41 *537:95 *9467:A2 17.7286 
42 *537:93 *537:227 10.8036 
43 *537:227 *1078:DIODE 13.5857 
44 *537:227 *9468:A2 9.3 
45 *537:76 *1090:DIODE 9.3 
46 *537:65 *9475:A2 15.6929 
47 *537:63 *1094:DIODE 14.7464 
48 *537:42 *1096:DIODE 9.3 
49 *537:40 *9477:A2 9.72857 
50 *537:34 *9478:A2 13.8 
51 *537:28 *537:303 15.4643 
52 *537:303 *1098:DIODE 9.3 
53 *537:303 *537:310 0.946429 
54 *537:310 *9479:A2 20.2464 
55 *537:310 *1100:DIODE 12.4429 
56 *537:20 *537:336 6.44643 
57 *537:336 *1138:DIODE 9.3 
58 *537:336 *9504:A3 23.05 
59 *537:16 *537:360 9.78571 
60 *537:360 *1102:DIODE 21.4607 
61 *537:360 *9480:A2 14.3357 
62 *537:14 *1104:DIODE 9.3 
63 *537:4 *9482:A2 24.8 
*END

*D_NET *538 0.0119502
*CONN
*I *9499:B1 I *D sky130_fd_sc_hd__a22o_1
*I *9481:A I *D sky130_fd_sc_hd__buf_4
*I *9466:A I *D sky130_fd_sc_hd__buf_4
*I *9503:A1 I *D sky130_fd_sc_hd__o21a_1
*I *9506:A I *D sky130_fd_sc_hd__or2_1
*I *9512:A1 I *D sky130_fd_sc_hd__o21a_1
*I *9465:Y O *D sky130_fd_sc_hd__nor2_2
*CAP
1 *9499:B1 0.000471991
2 *9481:A 0.000132489
3 *9466:A 0
4 *9503:A1 5.50294e-05
5 *9506:A 0.000462972
6 *9512:A1 0.000168391
7 *9465:Y 0.000109051
8 *538:74 0.00118308
9 *538:59 0.000911625
10 *538:16 0.0006796
11 *538:12 0.000846293
12 *538:8 0.00118511
13 *9481:A *9578:A0 2.89016e-05
14 *9481:A *740:115 0.000144038
15 *9499:B1 *9710:RESET_B 5.52238e-05
16 *9499:B1 *540:27 0.000418576
17 *9499:B1 *540:31 0.000168224
18 *9499:B1 *540:349 2.89114e-05
19 *9499:B1 *541:20 0.000315158
20 *9499:B1 *541:61 4.08637e-05
21 *9499:B1 *541:74 0.000112657
22 *9499:B1 *796:16 1.21258e-05
23 *9503:A1 *9501:B1 6.05161e-06
24 *9503:A1 *9503:A2 6.46382e-05
25 *9503:A1 *9503:B1 3.57366e-05
26 *9503:A1 *9504:A2 9.90431e-05
27 *9503:A1 *9507:A2 1.97695e-05
28 *9503:A1 *9514:B1 0
29 *9506:A *9506:B 0.000149945
30 *9506:A *9507:B2 0.000408182
31 *9506:A *9508:B 0
32 *9506:A *9509:A0 7.83659e-05
33 *9506:A *783:10 6.07232e-05
34 *9506:A *783:14 1.721e-05
35 *9506:A *786:40 0
36 *9512:A1 *9500:A 0.000170938
37 *9512:A1 *9507:A2 2.22043e-05
38 *9512:A1 *549:16 0.000276211
39 *538:8 *9236:A1 0.000310307
40 *538:12 *9236:A1 5.33005e-05
41 *538:12 *9501:A1 9.60939e-05
42 *538:12 *9501:B1 0.00055779
43 *538:12 *9503:A2 5.52238e-05
44 *538:12 *9514:B1 5.54547e-05
45 *538:16 *9503:B1 3.69047e-06
46 *538:16 *9504:A2 5.74499e-06
47 *538:59 *9221:B2 0.000128154
48 *538:59 *9236:A1 3.17148e-05
49 *538:59 *662:10 0
50 *538:59 *788:8 0
51 *538:74 *9710:CLK 0.000329704
52 *9221:A2 *538:59 0
53 *9236:A2 *538:8 0.000310307
54 *9236:A2 *538:59 6.91157e-05
55 *9237:B *538:59 0
56 *9320:A *9499:B1 5.74499e-06
57 *9320:A *538:74 2.88018e-06
58 *9505:B *9506:A 0.000642559
59 *9505:B *9512:A1 7.83587e-05
60 *9508:A *9506:A 0
61 *238:8 *9481:A 4.85029e-05
62 *337:243 *538:59 6.16744e-05
63 *344:208 *538:8 1.02504e-05
64 *348:99 *9506:A 9.90367e-05
65 *383:12 *9481:A 5.52238e-05
*RES
1 *9465:Y *538:8 17.8714 
2 *538:8 *538:12 14.4821 
3 *538:12 *538:16 5.03571 
4 *538:16 *9512:A1 18.3357 
5 *538:16 *9506:A 26.5857 
6 *538:12 *9503:A1 11.2821 
7 *538:8 *538:59 11.0357 
8 *538:59 *9466:A 9.3 
9 *538:59 *538:74 8.41071 
10 *538:74 *9481:A 21.2107 
11 *538:74 *9499:B1 29.7107 
*END

*D_NET *539 0.0353931
*CONN
*I *9501:A2 I *D sky130_fd_sc_hd__a21o_1
*I *9514:A1 I *D sky130_fd_sc_hd__o21a_1
*I *1139:DIODE I *D sky130_fd_sc_hd__diode_2
*I *1103:DIODE I *D sky130_fd_sc_hd__diode_2
*I *1101:DIODE I *D sky130_fd_sc_hd__diode_2
*I *9479:B1 I *D sky130_fd_sc_hd__a22o_1
*I *1099:DIODE I *D sky130_fd_sc_hd__diode_2
*I *9478:B1 I *D sky130_fd_sc_hd__a22o_1
*I *1097:DIODE I *D sky130_fd_sc_hd__diode_2
*I *9477:B1 I *D sky130_fd_sc_hd__a22o_1
*I *9476:B1 I *D sky130_fd_sc_hd__a22o_1
*I *1095:DIODE I *D sky130_fd_sc_hd__diode_2
*I *1079:DIODE I *D sky130_fd_sc_hd__diode_2
*I *9468:B1 I *D sky130_fd_sc_hd__a22o_1
*I *1077:DIODE I *D sky130_fd_sc_hd__diode_2
*I *9467:B1 I *D sky130_fd_sc_hd__a22o_1
*I *1093:DIODE I *D sky130_fd_sc_hd__diode_2
*I *9474:B1 I *D sky130_fd_sc_hd__a22o_1
*I *1087:DIODE I *D sky130_fd_sc_hd__diode_2
*I *9470:B1 I *D sky130_fd_sc_hd__a22o_1
*I *9471:B1 I *D sky130_fd_sc_hd__a22o_1
*I *9472:B1 I *D sky130_fd_sc_hd__a22o_1
*I *1085:DIODE I *D sky130_fd_sc_hd__diode_2
*I *1081:DIODE I *D sky130_fd_sc_hd__diode_2
*I *9469:B1 I *D sky130_fd_sc_hd__a22o_1
*I *1083:DIODE I *D sky130_fd_sc_hd__diode_2
*I *1089:DIODE I *D sky130_fd_sc_hd__diode_2
*I *9473:B1 I *D sky130_fd_sc_hd__a22o_1
*I *1091:DIODE I *D sky130_fd_sc_hd__diode_2
*I *9475:B1 I *D sky130_fd_sc_hd__a22o_1
*I *9480:B1 I *D sky130_fd_sc_hd__a22o_1
*I *1137:DIODE I *D sky130_fd_sc_hd__diode_2
*I *9466:X O *D sky130_fd_sc_hd__buf_4
*CAP
1 *9501:A2 0
2 *9514:A1 8.4021e-05
3 *1139:DIODE 4.16687e-05
4 *1103:DIODE 0.00010265
5 *1101:DIODE 0
6 *9479:B1 0
7 *1099:DIODE 0
8 *9478:B1 0
9 *1097:DIODE 0
10 *9477:B1 0.000201145
11 *9476:B1 2.23854e-05
12 *1095:DIODE 6.05886e-05
13 *1079:DIODE 0.000326395
14 *9468:B1 0
15 *1077:DIODE 0
16 *9467:B1 7.81202e-05
17 *1093:DIODE 0
18 *9474:B1 0
19 *1087:DIODE 0
20 *9470:B1 0.000197751
21 *9471:B1 4.19379e-06
22 *9472:B1 1.11927e-05
23 *1085:DIODE 0
24 *1081:DIODE 0.000101251
25 *9469:B1 0
26 *1083:DIODE 0.00013976
27 *1089:DIODE 0
28 *9473:B1 0
29 *1091:DIODE 0
30 *9475:B1 0.000289844
31 *9480:B1 2.23854e-05
32 *1137:DIODE 3.92359e-05
33 *9466:X 0.000236981
34 *539:310 0.000241603
35 *539:292 0.00048598
36 *539:270 0.000808994
37 *539:257 0.000569169
38 *539:246 0.00116353
39 *539:227 0.00102854
40 *539:193 0.000410779
41 *539:184 0.000389486
42 *539:180 0.000205456
43 *539:148 0.000628566
44 *539:144 0.000848634
45 *539:137 0.000559499
46 *539:131 0.0002944
47 *539:124 0.00096945
48 *539:116 0.000834053
49 *539:92 0.000388492
50 *539:90 0.000373937
51 *539:84 0.000342175
52 *539:82 0.000830745
53 *539:80 0.000518584
54 *539:76 0.000269673
55 *539:72 0.000335578
56 *539:66 0.00044388
57 *539:60 0.000969571
58 *539:50 0.00101937
59 *539:37 0.000675791
60 *539:31 0.000813587
61 *539:25 0.000415506
62 *539:16 0.000343012
63 *539:10 0.000540757
64 *1081:DIODE *9469:A1 3.98559e-05
65 *1081:DIODE *9469:B2 0.000144773
66 *1083:DIODE *698:10 1.72894e-05
67 *1083:DIODE *704:8 6.26559e-05
68 *1095:DIODE *9476:B2 5.52302e-05
69 *1095:DIODE *9549:A 0.000106524
70 *1103:DIODE *741:12 7.48091e-05
71 *9470:B1 *9470:B2 9.80173e-05
72 *9470:B1 *9471:A1 3.18676e-05
73 *9470:B1 *9472:A1 1.45274e-05
74 *9470:B1 *623:14 5.72814e-05
75 *9475:B1 *9709:CLK 5.01213e-05
76 *9477:B1 *9477:A1 3.18676e-05
77 *9477:B1 *9477:B2 0.000188376
78 *9477:B1 *771:10 8.07313e-05
79 *9480:B1 *9700:CLK 0
80 *9514:A1 *737:22 5.74562e-05
81 *539:10 *9501:A1 5.58941e-05
82 *539:10 *9813:A 5.33005e-05
83 *539:10 *662:10 0.000311495
84 *539:10 *785:33 0.000358853
85 *539:16 *9319:A 0.000153167
86 *539:16 *9501:A1 1.02504e-05
87 *539:16 *737:22 2.24195e-05
88 *539:16 *785:33 0.000123295
89 *539:31 *9734:A 0
90 *539:31 *737:22 3.07555e-05
91 *539:31 *785:33 0
92 *539:37 *1163:DIODE 0
93 *539:37 *9480:A1 2.59355e-05
94 *539:37 *9558:A1 0
95 *539:50 *9480:A1 0.000114792
96 *539:50 *9480:B2 2.89016e-05
97 *539:50 *829:10 3.69697e-05
98 *539:60 *9138:A 0.000127446
99 *539:60 *9155:B1 1.04232e-05
100 *539:60 *9236:A1 0
101 *539:60 *9480:A1 3.92854e-05
102 *539:60 *9797:A 0.000352053
103 *539:60 *603:10 0.000132442
104 *539:60 *785:33 0.000108136
105 *539:60 *821:74 0.000382532
106 *539:66 *9479:A1 0
107 *539:66 *9556:A0 0
108 *539:66 *9653:RESET_B 0
109 *539:66 *9797:A 8.66063e-05
110 *539:66 *738:132 6.8646e-06
111 *539:66 *821:74 0.000358977
112 *539:66 *828:6 9.90367e-05
113 *539:66 *828:10 0
114 *539:72 *9556:A0 0
115 *539:72 *9557:A 5.5782e-05
116 *539:72 *738:132 2.1527e-05
117 *539:72 *739:221 0.000315158
118 *539:72 *863:88 0.000303747
119 *539:76 *9478:B2 9.60875e-05
120 *539:76 *739:221 0.000186669
121 *539:76 *739:234 0.000135157
122 *539:76 *863:88 0.000142856
123 *539:80 *584:197 3.4323e-06
124 *539:80 *584:199 1.08175e-05
125 *539:80 *818:43 2.42082e-05
126 *539:80 *863:28 3.06466e-05
127 *539:82 *9477:A1 6.8551e-05
128 *539:82 *9477:B2 0
129 *539:82 *585:51 0.000342361
130 *539:82 *818:31 5.38011e-05
131 *539:82 *863:28 0.000887122
132 *539:84 *585:51 0.000187019
133 *539:84 *863:28 0.000196269
134 *539:90 *9548:A0 0
135 *539:90 *9709:CLK 0
136 *539:90 *585:51 3.34295e-05
137 *539:90 *863:28 0.000363252
138 *539:116 *9474:A1 1.02504e-05
139 *539:116 *9475:A1 2.26327e-05
140 *539:116 *863:28 1.18358e-05
141 *539:124 *9473:B2 0
142 *539:124 *9474:A1 0.000335674
143 *539:124 *9475:A1 5.80706e-06
144 *539:124 *9709:CLK 0
145 *539:124 *9773:A 2.82057e-05
146 *539:124 *621:10 0.000389854
147 *539:131 *9473:A1 2.44318e-05
148 *539:148 *9469:A1 2.89016e-05
149 *539:193 *9471:A1 3.18676e-05
150 *539:193 *9472:A1 7.49387e-06
151 *539:227 *9649:D 4.87953e-05
152 *539:227 *9649:RESET_B 9.60939e-05
153 *539:246 *1157:DIODE 2.8266e-06
154 *539:246 *9649:D 6.87574e-05
155 *539:246 *9649:RESET_B 0.00049041
156 *539:246 *9694:CLK 5.33334e-05
157 *539:246 *9702:CLK 0
158 *539:246 *9783:A 0
159 *539:246 *594:77 0
160 *539:246 *817:23 5.75147e-05
161 *539:257 *9467:B2 8.07313e-05
162 *539:270 *1227:DIODE 0.000193318
163 *539:270 *9467:B2 0.00025216
164 *539:270 *9564:A1 0
165 *539:270 *593:8 0.000528337
166 *539:270 *739:153 0.000197984
167 *539:292 *9476:A1 2.49291e-05
168 *539:292 *9548:A0 7.17136e-05
169 *539:292 *9548:S 0.000227539
170 *539:292 *9549:A 0.000229456
171 *539:292 *566:263 6.09688e-05
172 *539:310 *771:10 4.88637e-05
173 *539:310 *863:44 0.000139907
174 *1068:DIODE *539:60 5.43539e-05
175 *1078:DIODE *1079:DIODE 0.000206789
176 *1082:DIODE *1083:DIODE 5.10822e-05
177 *1086:DIODE *539:144 0.000105163
178 *1102:DIODE *539:37 3.17163e-05
179 *9151:C1 *539:60 0.000283541
180 *9152:B2 *539:60 0.00018372
181 *9319:B *9514:A1 0
182 *9319:B *539:31 0
183 *9440:S *539:60 2.04825e-05
184 *9467:A2 *9467:B1 1.97527e-05
185 *9467:A2 *539:246 9.60875e-05
186 *9470:A2 *9470:B1 1.24368e-05
187 *9473:A2 *539:131 0.000274288
188 *9473:A2 *539:180 5.52302e-05
189 *9476:A2 *539:292 5.52238e-05
190 *9479:A2 *539:72 8.15939e-05
191 *9480:A2 *539:37 2.89114e-05
192 *9654:D *539:37 0
193 *9700:D *539:37 2.95726e-05
194 *9765:A *539:76 0
195 *9770:A *539:246 6.74911e-05
196 *302:10 *539:60 1.90111e-05
197 *322:195 *539:60 1.721e-05
198 *344:208 *539:50 3.52632e-05
199 *344:208 *539:60 5.62914e-05
200 *344:220 *1139:DIODE 2.89016e-05
201 *369:10 *9477:B1 0.000227532
202 *369:10 *539:310 0.000214198
203 *440:16 *539:31 0
204 *440:25 *1137:DIODE 5.52238e-05
205 *440:25 *539:16 0.000174232
206 *537:34 *539:80 5.80706e-06
207 *537:40 *9477:B1 5.52238e-05
208 *537:40 *539:80 9.07864e-05
209 *537:40 *539:82 7.9524e-05
210 *537:50 *9477:B1 0
211 *537:63 *539:292 0.000188754
212 *537:69 *9475:B1 0
213 *537:80 *9475:B1 0.000185643
214 *537:80 *539:90 8.66063e-05
215 *537:80 *539:92 0.000126572
216 *537:93 *539:90 1.33343e-05
217 *537:105 *539:144 4.59075e-05
218 *537:105 *539:148 0.000358971
219 *537:107 *539:144 2.89016e-05
220 *537:138 *539:184 4.88637e-05
221 *537:138 *539:193 9.81459e-05
222 *537:140 *539:180 4.38128e-05
223 *537:140 *539:184 7.32955e-05
224 *537:167 *539:148 0.000111451
225 *537:176 *539:148 1.74352e-05
226 *537:360 *539:31 3.49114e-05
227 *537:360 *539:37 0.000165761
*RES
1 *9466:X *539:10 20.6571 
2 *539:10 *539:16 9.55357 
3 *539:16 *1137:DIODE 9.83571 
4 *539:16 *539:25 4.5 
5 *539:25 *539:31 5.14286 
6 *539:31 *539:37 11.6607 
7 *539:37 *9480:B1 9.72857 
8 *539:37 *539:50 8.41071 
9 *539:50 *539:60 22.0893 
10 *539:60 *539:66 10.4643 
11 *539:66 *539:72 10.3571 
12 *539:72 *539:76 4.66071 
13 *539:76 *539:80 7.05357 
14 *539:80 *539:82 11.6607 
15 *539:82 *539:84 2.55357 
16 *539:84 *539:90 10.125 
17 *539:90 *539:92 1.35714 
18 *539:92 *9475:B1 22.3536 
19 *539:92 *1091:DIODE 9.3 
20 *539:90 *539:116 5.23214 
21 *539:116 *539:124 21.3214 
22 *539:124 *9473:B1 9.3 
23 *539:124 *539:131 3.41071 
24 *539:131 *539:137 10.3393 
25 *539:137 *1089:DIODE 9.3 
26 *539:137 *539:144 5.875 
27 *539:144 *539:148 7.53571 
28 *539:148 *1083:DIODE 21.0857 
29 *539:148 *9469:B1 9.3 
30 *539:148 *1081:DIODE 11.4786 
31 *539:144 *1085:DIODE 9.3 
32 *539:131 *539:180 0.946429 
33 *539:180 *539:184 2.60714 
34 *539:184 *9472:B1 9.72857 
35 *539:184 *539:193 3 
36 *539:193 *9471:B1 9.72857 
37 *539:193 *9470:B1 13.2643 
38 *539:180 *1087:DIODE 9.3 
39 *539:116 *9474:B1 13.8 
40 *539:84 *539:227 5.44643 
41 *539:227 *1093:DIODE 9.3 
42 *539:227 *539:246 26.8393 
43 *539:246 *9467:B1 10.8714 
44 *539:246 *539:257 1.76786 
45 *539:257 *1077:DIODE 9.3 
46 *539:257 *539:270 21.125 
47 *539:270 *9468:B1 9.3 
48 *539:270 *1079:DIODE 13.55 
49 *539:82 *539:292 13.8036 
50 *539:292 *1095:DIODE 11.0679 
51 *539:292 *9476:B1 9.72857 
52 *539:80 *539:310 6.67857 
53 *539:310 *9477:B1 23.5679 
54 *539:310 *1097:DIODE 9.3 
55 *539:76 *9478:B1 9.3 
56 *539:72 *1099:DIODE 9.3 
57 *539:66 *9479:B1 13.8 
58 *539:60 *1101:DIODE 9.3 
59 *539:50 *1103:DIODE 15.1571 
60 *539:31 *1139:DIODE 14.3357 
61 *539:25 *9514:A1 15.4429 
62 *539:10 *9501:A2 13.8 
*END

*D_NET *540 0.0372153
*CONN
*I *9484:B1 I *D sky130_fd_sc_hd__a22o_1
*I *1107:DIODE I *D sky130_fd_sc_hd__diode_2
*I *1109:DIODE I *D sky130_fd_sc_hd__diode_2
*I *9485:B1 I *D sky130_fd_sc_hd__a22o_1
*I *1105:DIODE I *D sky130_fd_sc_hd__diode_2
*I *9491:B1 I *D sky130_fd_sc_hd__a22o_1
*I *1121:DIODE I *D sky130_fd_sc_hd__diode_2
*I *1123:DIODE I *D sky130_fd_sc_hd__diode_2
*I *9492:B1 I *D sky130_fd_sc_hd__a22o_1
*I *1125:DIODE I *D sky130_fd_sc_hd__diode_2
*I *1127:DIODE I *D sky130_fd_sc_hd__diode_2
*I *9494:B1 I *D sky130_fd_sc_hd__a22o_1
*I *9493:B1 I *D sky130_fd_sc_hd__a22o_1
*I *9496:B1 I *D sky130_fd_sc_hd__a22o_1
*I *9488:B1 I *D sky130_fd_sc_hd__a22o_1
*I *1115:DIODE I *D sky130_fd_sc_hd__diode_2
*I *9487:B1 I *D sky130_fd_sc_hd__a22o_1
*I *1113:DIODE I *D sky130_fd_sc_hd__diode_2
*I *9486:B1 I *D sky130_fd_sc_hd__a22o_1
*I *1111:DIODE I *D sky130_fd_sc_hd__diode_2
*I *1131:DIODE I *D sky130_fd_sc_hd__diode_2
*I *9495:B1 I *D sky130_fd_sc_hd__a22o_1
*I *1129:DIODE I *D sky130_fd_sc_hd__diode_2
*I *9490:B1 I *D sky130_fd_sc_hd__a22o_1
*I *9489:B1 I *D sky130_fd_sc_hd__a22o_1
*I *1119:DIODE I *D sky130_fd_sc_hd__diode_2
*I *1117:DIODE I *D sky130_fd_sc_hd__diode_2
*I *9497:B1 I *D sky130_fd_sc_hd__a22o_1
*I *1133:DIODE I *D sky130_fd_sc_hd__diode_2
*I *1135:DIODE I *D sky130_fd_sc_hd__diode_2
*I *9498:B1 I *D sky130_fd_sc_hd__a22o_1
*I *9482:B1 I *D sky130_fd_sc_hd__a22o_1
*I *9481:X O *D sky130_fd_sc_hd__buf_4
*CAP
1 *9484:B1 0
2 *1107:DIODE 1.50853e-05
3 *1109:DIODE 0.000344983
4 *9485:B1 0.000358318
5 *1105:DIODE 0.000118852
6 *9491:B1 9.7897e-05
7 *1121:DIODE 0
8 *1123:DIODE 0
9 *9492:B1 0.000223138
10 *1125:DIODE 0
11 *1127:DIODE 0.000322579
12 *9494:B1 2.23854e-05
13 *9493:B1 0
14 *9496:B1 0
15 *9488:B1 0.000113946
16 *1115:DIODE 0
17 *9487:B1 6.42051e-05
18 *1113:DIODE 0
19 *9486:B1 0
20 *1111:DIODE 0.000109671
21 *1131:DIODE 0
22 *9495:B1 0
23 *1129:DIODE 0
24 *9490:B1 8.42138e-05
25 *9489:B1 0
26 *1119:DIODE 0
27 *1117:DIODE 0
28 *9497:B1 0
29 *1133:DIODE 0.000184018
30 *1135:DIODE 0
31 *9498:B1 0.000213265
32 *9482:B1 0.000775621
33 *9481:X 0.000115048
34 *540:380 0.000840653
35 *540:378 0.000359368
36 *540:370 0.00185854
37 *540:349 0.00206771
38 *540:331 0.000778642
39 *540:288 0.000961634
40 *540:284 0.000753858
41 *540:277 0.000205389
42 *540:248 0.000155493
43 *540:212 0.000241494
44 *540:204 0.000269536
45 *540:202 0.000326739
46 *540:198 0.000255774
47 *540:189 0.000380038
48 *540:181 0.000697847
49 *540:171 0.000572933
50 *540:160 0.000254735
51 *540:153 0.000391411
52 *540:147 0.000457329
53 *540:145 0.000505754
54 *540:137 0.00163835
55 *540:120 0.000597711
56 *540:109 0.000160712
57 *540:79 0.00076175
58 *540:71 0.000666333
59 *540:69 0.000182387
60 *540:67 0.000992098
61 *540:52 0.000824309
62 *540:31 0.000389086
63 *540:27 0.000691908
64 *540:10 0.00113458
65 *1105:DIODE *9484:A1 0.00010096
66 *1105:DIODE *597:66 2.79092e-05
67 *1107:DIODE *790:20 5.49489e-05
68 *1107:DIODE *814:29 1.46148e-05
69 *1107:DIODE *814:37 1.24368e-05
70 *1109:DIODE *9083:A 4.87854e-05
71 *1109:DIODE *541:382 6.52148e-05
72 *1111:DIODE *588:14 0.000270229
73 *1111:DIODE *646:14 1.17968e-05
74 *1127:DIODE *1126:DIODE 9.61553e-05
75 *1127:DIODE *9494:A1 2.27416e-05
76 *1127:DIODE *9494:A2 2.89016e-05
77 *1133:DIODE *1132:DIODE 0.000154132
78 *1133:DIODE *9497:A1 6.10501e-05
79 *9482:B1 *9482:B2 2.25961e-05
80 *9482:B1 *584:160 8.25843e-06
81 *9482:B1 *597:8 0.000183726
82 *9482:B1 *598:10 3.93893e-05
83 *9482:B1 *740:101 0.000110601
84 *9482:B1 *743:110 0
85 *9482:B1 *796:16 9.91086e-05
86 *9485:B1 *9485:A2 8.35751e-05
87 *9485:B1 *541:382 9.08767e-05
88 *9485:B1 *790:20 2.93215e-05
89 *9485:B1 *790:24 5.37741e-06
90 *9485:B1 *791:64 0
91 *9487:B1 *9487:B2 5.52238e-05
92 *9487:B1 *9751:A 2.89016e-05
93 *9488:B1 *9488:A2 1.24368e-05
94 *9488:B1 *9689:RESET_B 4.38128e-05
95 *9488:B1 *541:305 0.000175519
96 *9488:B1 *541:322 4.80729e-05
97 *9488:B1 *589:20 6.60598e-05
98 *9488:B1 *791:38 7.80714e-06
99 *9488:B1 *835:14 8.49318e-05
100 *9488:B1 *835:28 0.000103267
101 *9490:B1 *9490:A2 6.14692e-05
102 *9490:B1 *9490:B2 1.57296e-05
103 *9490:B1 *9693:CLK 1.14749e-05
104 *9491:B1 *1120:DIODE 0.000131439
105 *9491:B1 *9491:A1 3.18676e-05
106 *9491:B1 *541:189 1.21289e-05
107 *9492:B1 *9835:A 0
108 *9492:B1 *541:168 0
109 *9494:B1 *9846:A 0
110 *9498:B1 *9498:A1 0.000135749
111 *9498:B1 *9498:B2 1.39726e-05
112 *9498:B1 *9499:B2 1.33343e-05
113 *540:10 *9578:A0 2.89016e-05
114 *540:10 *598:10 6.41079e-05
115 *540:10 *740:101 1.17968e-05
116 *540:10 *740:115 8.59056e-05
117 *540:27 *796:16 0.000181796
118 *540:31 *9498:A1 0
119 *540:31 *9498:B2 0
120 *540:31 *9499:A1 1.76039e-05
121 *540:31 *541:14 7.90803e-05
122 *540:52 *9499:A1 3.92854e-05
123 *540:67 *9498:A1 0
124 *540:67 *9499:A1 3.07555e-05
125 *540:67 *9834:A 0
126 *540:67 *740:139 0
127 *540:67 *740:143 0
128 *540:67 *740:187 0
129 *540:67 *757:18 0
130 *540:67 *845:8 0
131 *540:79 *9074:B 0
132 *540:79 *9539:A0 0.00014183
133 *540:79 *9539:A1 2.89114e-05
134 *540:79 *9540:A 0.000274294
135 *540:79 *9691:RESET_B 0.00020212
136 *540:79 *541:41 5.80706e-06
137 *540:79 *743:114 4.9773e-05
138 *540:109 *541:101 0.000152425
139 *540:109 *740:187 3.93986e-05
140 *540:120 *9490:A2 8.06427e-05
141 *540:120 *541:101 1.41029e-05
142 *540:120 *740:187 3.69865e-05
143 *540:137 *9490:B2 4.96171e-05
144 *540:145 *9544:A 5.7661e-06
145 *540:145 *806:10 0
146 *540:153 *541:91 0
147 *540:153 *541:168 0
148 *540:153 *541:203 0.000184745
149 *540:160 *9495:B2 2.36643e-05
150 *540:160 *541:203 0.000183726
151 *540:160 *541:218 0.00026875
152 *540:171 *9495:A1 5.52302e-05
153 *540:171 *541:218 1.38323e-05
154 *540:181 *9496:A2 3.50166e-05
155 *540:181 *9496:B2 5.68713e-05
156 *540:181 *541:226 0.000459698
157 *540:181 *541:232 0
158 *540:181 *589:43 0.000149959
159 *540:181 *589:61 0.000239055
160 *540:181 *835:28 0.000185547
161 *540:189 *9496:A1 0.000114071
162 *540:189 *9496:A2 1.02132e-05
163 *540:189 *541:243 0.00017224
164 *540:189 *835:28 7.15905e-06
165 *540:198 *1114:DIODE 0.000172309
166 *540:198 *9689:RESET_B 0.000225609
167 *540:198 *541:243 0.000227526
168 *540:202 *541:247 0
169 *540:202 *791:38 6.8025e-05
170 *540:204 *9487:A1 9.10431e-06
171 *540:204 *541:247 0
172 *540:204 *791:38 7.50601e-05
173 *540:212 *9486:A1 6.87476e-05
174 *540:212 *9486:B2 5.52302e-05
175 *540:212 *9487:A1 1.69115e-05
176 *540:212 *588:14 5.33005e-05
177 *540:212 *646:14 4.1331e-06
178 *540:248 *1114:DIODE 5.52302e-05
179 *540:248 *9689:RESET_B 0.000215102
180 *540:248 *589:20 5.71472e-05
181 *540:248 *835:28 6.13217e-05
182 *540:277 *9493:A2 1.52978e-05
183 *540:277 *589:61 4.22387e-05
184 *540:284 *9493:A1 5.49544e-05
185 *540:284 *9493:A2 9.65163e-05
186 *540:284 *9493:B2 0.00013495
187 *540:288 *9493:B2 7.47252e-05
188 *540:288 *9494:A1 4.69993e-05
189 *540:288 *9494:B2 3.18676e-05
190 *540:288 *9495:A1 0.000396898
191 *540:288 *9846:A 8.76257e-05
192 *540:331 *1120:DIODE 0.000188586
193 *540:331 *9839:A 9.97648e-05
194 *540:331 *743:158 0
195 *540:331 *743:164 0
196 *540:331 *838:10 6.74911e-05
197 *540:349 *9685:CLK 0.000148911
198 *540:349 *9737:A 4.90888e-05
199 *540:349 *541:14 3.75052e-05
200 *540:349 *541:74 1.39726e-05
201 *540:349 *584:136 0
202 *540:349 *597:66 4.97121e-06
203 *540:370 *9656:CLK 7.09184e-05
204 *540:370 *9656:D 5.65955e-05
205 *540:370 *584:138 0.000274294
206 *540:378 *9484:B2 5.33005e-05
207 *540:378 *790:14 0
208 *540:378 *790:20 1.08847e-05
209 *540:378 *793:26 0
210 *540:380 *790:20 8.13491e-05
211 *540:380 *791:64 0
212 *1150:DIODE *9485:B1 5.62995e-05
213 *1154:DIODE *540:79 0.000127031
214 *9136:D *540:378 3.05522e-05
215 *9236:A2 *9482:B1 0
216 *9320:A *540:27 2.28598e-05
217 *9483:A *9482:B1 0.000148189
218 *9499:B1 *540:27 0.000418576
219 *9499:B1 *540:31 0.000168224
220 *9499:B1 *540:349 2.89114e-05
221 *9658:D *1111:DIODE 9.96238e-05
222 *9663:D *540:331 0
223 *9685:D *540:349 0
224 *9686:D *9485:B1 1.97695e-05
225 *9691:D *540:79 0
226 *9692:D *540:120 7.83587e-05
227 *9761:A *9482:B1 3.18676e-05
228 *9779:A *540:370 2.74273e-05
229 *9779:A *540:378 0.000130054
230 *9803:A *1127:DIODE 6.22419e-05
231 *187:24 *540:31 6.2589e-06
232 *231:10 *540:370 2.22999e-05
233 *246:10 *9485:B1 0.000228931
234 *373:12 *9492:B1 0
235 *373:14 *9492:B1 3.85755e-05
236 *373:14 *540:153 0
237 *383:12 *540:10 5.52238e-05
238 *383:12 *540:349 0
239 *442:10 *540:27 9.90431e-05
240 *442:10 *540:31 0
241 *442:10 *540:67 0
242 *442:28 *540:67 0
243 *442:32 *540:67 0
244 *442:32 *540:71 7.17235e-05
245 *442:32 *540:79 0.000146513
246 *442:48 *540:67 3.33174e-05
247 *442:48 *540:69 7.31522e-05
248 *442:48 *540:71 1.56e-05
249 *442:48 *540:109 3.30352e-05
250 *442:60 *540:145 0.000186662
251 *442:67 *540:145 0.000698716
252 *442:127 *540:212 2.84398e-05
253 *442:238 *540:189 0.000139913
254 *442:238 *540:198 8.87097e-05
255 *442:301 *540:145 0
256 *442:301 *540:331 0
257 *442:322 *540:27 5.52238e-05
258 *442:328 *540:349 0
259 *442:354 *540:27 0.000139913
260 *442:354 *540:349 8.57023e-05
*RES
1 *9481:X *540:10 16.8893 
2 *540:10 *9482:B1 25.6036 
3 *540:10 *540:27 12.0179 
4 *540:27 *540:31 7.96429 
5 *540:31 *9498:B1 27.9786 
6 *540:31 *540:52 1.03571 
7 *540:52 *1135:DIODE 13.8 
8 *540:52 *540:67 18.4375 
9 *540:67 *540:69 1.97321 
10 *540:69 *540:71 1.76786 
11 *540:71 *540:79 22.2143 
12 *540:79 *1133:DIODE 13.0321 
13 *540:79 *9497:B1 9.3 
14 *540:71 *1117:DIODE 9.3 
15 *540:69 *1119:DIODE 9.3 
16 *540:67 *540:109 7.29464 
17 *540:109 *9489:B1 13.8 
18 *540:109 *540:120 6.75 
19 *540:120 *9490:B1 11.5321 
20 *540:120 *540:137 9.55357 
21 *540:137 *540:145 14.3036 
22 *540:145 *540:147 4.5 
23 *540:147 *540:153 8.82143 
24 *540:153 *1129:DIODE 9.3 
25 *540:153 *540:160 4.23214 
26 *540:160 *9495:B1 9.3 
27 *540:160 *540:171 5.875 
28 *540:171 *540:181 15.25 
29 *540:181 *540:189 5.92857 
30 *540:189 *1131:DIODE 9.3 
31 *540:189 *540:198 4.25 
32 *540:198 *540:202 6.75 
33 *540:202 *540:204 2.25 
34 *540:204 *540:212 7.42857 
35 *540:212 *1111:DIODE 22.0679 
36 *540:212 *9486:B1 9.3 
37 *540:204 *1113:DIODE 13.8 
38 *540:202 *9487:B1 14.8714 
39 *540:198 *540:248 2.17857 
40 *540:248 *1115:DIODE 9.3 
41 *540:248 *9488:B1 22.2286 
42 *540:181 *9496:B1 9.3 
43 *540:171 *540:277 5.83929 
44 *540:277 *9493:B1 9.3 
45 *540:277 *540:284 3 
46 *540:284 *540:288 8.76786 
47 *540:288 *9494:B1 9.72857 
48 *540:288 *1127:DIODE 13.9429 
49 *540:284 *1125:DIODE 9.3 
50 *540:147 *9492:B1 17.9429 
51 *540:145 *1123:DIODE 9.3 
52 *540:137 *540:331 17.7321 
53 *540:331 *1121:DIODE 9.3 
54 *540:331 *9491:B1 11.4786 
55 *540:27 *540:349 11.0357 
56 *540:349 *1105:DIODE 15.7821 
57 *540:349 *540:370 33.4464 
58 *540:370 *540:378 8.53571 
59 *540:378 *540:380 2.25 
60 *540:380 *9485:B1 21.6929 
61 *540:380 *1109:DIODE 18.0321 
62 *540:378 *1107:DIODE 14.3357 
63 *540:370 *9484:B1 9.3 
*END

*D_NET *541 0.0358676
*CONN
*I *9484:A2 I *D sky130_fd_sc_hd__a22o_1
*I *1106:DIODE I *D sky130_fd_sc_hd__diode_2
*I *9485:A2 I *D sky130_fd_sc_hd__a22o_1
*I *1108:DIODE I *D sky130_fd_sc_hd__diode_2
*I *1136:DIODE I *D sky130_fd_sc_hd__diode_2
*I *9495:A2 I *D sky130_fd_sc_hd__a22o_1
*I *1130:DIODE I *D sky130_fd_sc_hd__diode_2
*I *1114:DIODE I *D sky130_fd_sc_hd__diode_2
*I *1126:DIODE I *D sky130_fd_sc_hd__diode_2
*I *9494:A2 I *D sky130_fd_sc_hd__a22o_1
*I *9488:A2 I *D sky130_fd_sc_hd__a22o_1
*I *9487:A2 I *D sky130_fd_sc_hd__a22o_1
*I *9486:A2 I *D sky130_fd_sc_hd__a22o_1
*I *1112:DIODE I *D sky130_fd_sc_hd__diode_2
*I *1110:DIODE I *D sky130_fd_sc_hd__diode_2
*I *9496:A2 I *D sky130_fd_sc_hd__a22o_1
*I *1128:DIODE I *D sky130_fd_sc_hd__diode_2
*I *9491:A2 I *D sky130_fd_sc_hd__a22o_1
*I *1120:DIODE I *D sky130_fd_sc_hd__diode_2
*I *9492:A2 I *D sky130_fd_sc_hd__a22o_1
*I *9493:A2 I *D sky130_fd_sc_hd__a22o_1
*I *1124:DIODE I *D sky130_fd_sc_hd__diode_2
*I *1122:DIODE I *D sky130_fd_sc_hd__diode_2
*I *1116:DIODE I *D sky130_fd_sc_hd__diode_2
*I *1118:DIODE I *D sky130_fd_sc_hd__diode_2
*I *9490:A2 I *D sky130_fd_sc_hd__a22o_1
*I *9489:A2 I *D sky130_fd_sc_hd__a22o_1
*I *9499:A2 I *D sky130_fd_sc_hd__a22o_1
*I *1134:DIODE I *D sky130_fd_sc_hd__diode_2
*I *1132:DIODE I *D sky130_fd_sc_hd__diode_2
*I *9497:A2 I *D sky130_fd_sc_hd__a22o_1
*I *9498:A2 I *D sky130_fd_sc_hd__a22o_1
*I *9483:X O *D sky130_fd_sc_hd__buf_4
*CAP
1 *9484:A2 4.56693e-05
2 *1106:DIODE 0
3 *9485:A2 0.000158763
4 *1108:DIODE 4.97691e-05
5 *1136:DIODE 0
6 *9495:A2 0
7 *1130:DIODE 8.64471e-05
8 *1114:DIODE 3.49873e-05
9 *1126:DIODE 3.44814e-05
10 *9494:A2 1.64896e-05
11 *9488:A2 9.96054e-05
12 *9487:A2 0
13 *9486:A2 0.000145045
14 *1112:DIODE 0
15 *1110:DIODE 0.000161735
16 *9496:A2 2.29601e-05
17 *1128:DIODE 0
18 *9491:A2 0
19 *1120:DIODE 9.4393e-05
20 *9492:A2 0.000196914
21 *9493:A2 0.000467011
22 *1124:DIODE 0
23 *1122:DIODE 0
24 *1116:DIODE 0
25 *1118:DIODE 0
26 *9490:A2 0.000188623
27 *9489:A2 0
28 *9499:A2 0
29 *1134:DIODE 0
30 *1132:DIODE 8.55246e-05
31 *9497:A2 0
32 *9498:A2 2.63024e-05
33 *9483:X 0.000213966
34 *541:382 0.000734031
35 *541:372 0.0007222
36 *541:366 0.00100393
37 *541:322 0.000467799
38 *541:305 0.000692762
39 *541:294 0.00021601
40 *541:275 0.000442548
41 *541:249 0.000243501
42 *541:247 0.000491543
43 *541:243 0.000322229
44 *541:232 0.000242261
45 *541:226 0.000552559
46 *541:218 0.000613104
47 *541:203 0.000609615
48 *541:189 0.000686268
49 *541:168 0.00100691
50 *541:148 0.000747681
51 *541:141 0.00028067
52 *541:139 0.000286312
53 *541:135 0.000634512
54 *541:101 0.000357473
55 *541:95 0.00052778
56 *541:93 0.00077713
57 *541:91 0.00139826
58 *541:85 0.000814726
59 *541:83 0.00132312
60 *541:74 0.00075379
61 *541:61 0.000256235
62 *541:41 0.0010096
63 *541:20 0.00122023
64 *541:14 0.000525448
65 *1108:DIODE *789:20 0
66 *1108:DIODE *791:64 3.34295e-05
67 *1110:DIODE *9659:RESET_B 9.25014e-06
68 *1110:DIODE *746:8 0.000150618
69 *1110:DIODE *792:8 1.33343e-05
70 *1114:DIODE *835:28 0.000230482
71 *1130:DIODE *589:35 7.07155e-06
72 *1132:DIODE *9497:A1 2.97021e-05
73 *1132:DIODE *9497:B2 0.000195002
74 *1132:DIODE *9526:A 0
75 *9484:A2 *9484:A1 0.000182598
76 *9484:A2 *793:43 5.33005e-05
77 *9485:A2 *9686:CLK 1.3701e-05
78 *9485:A2 *791:79 0.00018372
79 *9486:A2 *9486:A1 9.28838e-05
80 *9486:A2 *9487:A1 7.83587e-05
81 *9486:A2 *588:14 1.45274e-05
82 *9488:A2 *9488:B2 1.97695e-05
83 *9490:A2 *9490:A1 8.00806e-05
84 *9490:A2 *757:18 0
85 *9492:A2 *9492:B2 0
86 *9493:A2 *9493:A1 2.56765e-05
87 *9493:A2 *9493:B2 1.39841e-05
88 *9493:A2 *790:14 1.50171e-05
89 *9496:A2 *9496:A1 6.03333e-05
90 *9498:A2 *9499:B2 9.71197e-05
91 *541:14 *9685:CLK 3.69047e-06
92 *541:14 *9737:A 1.91004e-05
93 *541:20 *757:18 0.000149904
94 *541:41 *9074:A 1.13406e-05
95 *541:41 *9074:B 2.6949e-05
96 *541:41 *9683:CLK 0.00016344
97 *541:41 *757:18 0.000616417
98 *541:41 *794:82 0.000198698
99 *541:74 *9498:B2 4.1331e-06
100 *541:74 *794:12 0
101 *541:83 *9498:B2 8.17713e-05
102 *541:83 *9499:B2 0
103 *541:83 *9527:A0 5.52302e-05
104 *541:83 *9527:A1 3.18676e-05
105 *541:91 *9067:B 0
106 *541:91 *9523:A0 0.000270236
107 *541:91 *9537:A0 0
108 *541:91 *9538:A 0
109 *541:91 *793:10 0
110 *541:91 *793:20 0
111 *541:93 *743:139 2.03486e-05
112 *541:95 *743:139 2.07937e-05
113 *541:101 *757:18 0
114 *541:139 *9067:B 0
115 *541:168 *9067:B 0
116 *541:168 *9543:A0 0
117 *541:168 *9835:A 1.02504e-05
118 *541:189 *9067:B 0
119 *541:189 *9490:B2 9.64695e-05
120 *541:189 *9491:A1 0.000379094
121 *541:189 *9491:B2 6.87574e-05
122 *541:189 *9835:A 0.000129868
123 *541:218 *9495:A1 5.33005e-05
124 *541:218 *9495:B2 0.000136676
125 *541:218 *589:61 5.33614e-05
126 *541:226 *589:35 3.47702e-06
127 *541:226 *589:43 3.30871e-05
128 *541:226 *790:14 0
129 *541:232 *790:14 0.000121842
130 *541:243 *9496:A1 1.98839e-05
131 *541:243 *835:28 0.000651954
132 *541:247 *746:8 9.71532e-05
133 *541:247 *746:32 0.000125717
134 *541:247 *746:42 5.41794e-05
135 *541:249 *746:8 0.000137224
136 *541:275 *9751:A 0.000270489
137 *541:294 *9487:A1 7.15449e-05
138 *541:294 *802:16 0
139 *541:305 *9487:B2 0.000140933
140 *541:305 *9488:A1 0.000315179
141 *541:305 *9751:A 7.77751e-05
142 *541:305 *791:38 0
143 *541:322 *9488:A1 5.58941e-05
144 *541:322 *791:10 0
145 *541:322 *791:38 0
146 *541:322 *835:14 7.2277e-05
147 *541:322 *842:14 0
148 *541:366 *793:22 0.00079348
149 *541:366 *795:48 0
150 *541:372 *9135:C 4.79842e-05
151 *541:372 *793:22 2.24646e-05
152 *541:372 *793:26 0.000126439
153 *541:372 *814:29 1.13147e-05
154 *541:382 *790:20 0
155 *541:382 *793:26 0.000142317
156 *1109:DIODE *541:382 6.52148e-05
157 *1127:DIODE *1126:DIODE 9.61553e-05
158 *1127:DIODE *9494:A2 2.89016e-05
159 *1133:DIODE *1132:DIODE 0.000154132
160 *1148:DIODE *541:83 9.92409e-05
161 *9075:B *541:41 4.88104e-05
162 *9103:A *541:366 9.59321e-05
163 *9485:B1 *9485:A2 8.35751e-05
164 *9485:B1 *541:382 9.08767e-05
165 *9488:B1 *9488:A2 1.24368e-05
166 *9488:B1 *541:305 0.000175519
167 *9488:B1 *541:322 4.80729e-05
168 *9490:B1 *9490:A2 6.14692e-05
169 *9491:B1 *1120:DIODE 0.000131439
170 *9491:B1 *541:189 1.21289e-05
171 *9492:B1 *541:168 0
172 *9499:B1 *541:20 0.000315158
173 *9499:B1 *541:61 4.08637e-05
174 *9499:B1 *541:74 0.000112657
175 *9535:S *541:294 0
176 *9535:S *541:305 1.08359e-05
177 *9659:D *9486:A2 0
178 *9663:D *1120:DIODE 1.92905e-05
179 *9670:D *541:41 0.000315172
180 *9686:D *9485:A2 3.69047e-06
181 *9690:D *541:226 6.05161e-06
182 *9768:A *541:189 0
183 *9772:A *541:41 3.92854e-05
184 *9779:A *9484:A2 5.45307e-05
185 *9803:A *1126:DIODE 0.000102207
186 *9803:A *9494:A2 2.89016e-05
187 *232:18 *541:91 0
188 *232:18 *541:366 0
189 *246:10 *1108:DIODE 0.00010326
190 *246:10 *541:382 0.000228931
191 *348:161 *1110:DIODE 4.95751e-05
192 *348:161 *541:366 0.00018372
193 *372:18 *541:14 5.20359e-06
194 *372:18 *541:91 0.000127446
195 *373:12 *541:218 0
196 *373:14 *541:218 0
197 *383:12 *9498:A2 5.03772e-05
198 *383:12 *541:83 0.000101149
199 *442:10 *541:14 0
200 *442:10 *541:20 7.2754e-05
201 *442:10 *541:41 5.39552e-05
202 *442:48 *541:95 8.45419e-05
203 *442:48 *541:101 1.32552e-05
204 *442:67 *9493:A2 6.87725e-05
205 *442:67 *541:148 0.000153474
206 *442:127 *1110:DIODE 7.4826e-05
207 *442:127 *541:249 2.84398e-05
208 *442:328 *541:14 5.33882e-05
209 *442:354 *541:74 1.15281e-05
210 *540:31 *541:14 7.90803e-05
211 *540:79 *541:41 5.80706e-06
212 *540:109 *541:101 0.000152425
213 *540:120 *9490:A2 8.06427e-05
214 *540:120 *541:101 1.41029e-05
215 *540:153 *541:91 0
216 *540:153 *541:168 0
217 *540:153 *541:203 0.000184745
218 *540:160 *541:203 0.000183726
219 *540:160 *541:218 0.00026875
220 *540:171 *541:218 1.38323e-05
221 *540:181 *9496:A2 3.50166e-05
222 *540:181 *541:226 0.000459698
223 *540:181 *541:232 0
224 *540:189 *9496:A2 1.02132e-05
225 *540:189 *541:243 0.00017224
226 *540:198 *1114:DIODE 0.000172309
227 *540:198 *541:243 0.000227526
228 *540:202 *541:247 0
229 *540:204 *541:247 0
230 *540:248 *1114:DIODE 5.52302e-05
231 *540:277 *9493:A2 1.52978e-05
232 *540:284 *9493:A2 9.65163e-05
233 *540:331 *1120:DIODE 0.000188586
234 *540:349 *541:14 3.75052e-05
235 *540:349 *541:74 1.39726e-05
*RES
1 *9483:X *541:14 22.2286 
2 *541:14 *541:20 9.44643 
3 *541:20 *9498:A2 14.7464 
4 *541:20 *541:41 30.9821 
5 *541:41 *9497:A2 9.3 
6 *541:41 *1132:DIODE 12.7643 
7 *541:14 *541:61 0.535714 
8 *541:61 *1134:DIODE 9.3 
9 *541:61 *541:74 12.3036 
10 *541:74 *9499:A2 9.3 
11 *541:74 *541:83 9.58929 
12 *541:83 *541:85 0.428571 
13 *541:85 *541:91 23.6964 
14 *541:91 *541:93 4.64286 
15 *541:93 *541:95 4.64286 
16 *541:95 *541:101 7.5 
17 *541:101 *9489:A2 13.8 
18 *541:101 *9490:A2 17.8536 
19 *541:95 *1118:DIODE 9.3 
20 *541:93 *1116:DIODE 9.3 
21 *541:91 *541:135 2.17857 
22 *541:135 *541:139 5.53571 
23 *541:139 *541:141 4.5 
24 *541:141 *1122:DIODE 9.3 
25 *541:141 *541:148 3.82143 
26 *541:148 *1124:DIODE 9.3 
27 *541:148 *9493:A2 24.4964 
28 *541:139 *541:168 3.46429 
29 *541:168 *9492:A2 17.2464 
30 *541:168 *541:189 17.875 
31 *541:189 *1120:DIODE 12.3 
32 *541:189 *9491:A2 9.3 
33 *541:135 *541:203 5.05357 
34 *541:203 *1128:DIODE 9.3 
35 *541:203 *541:218 13.2679 
36 *541:218 *541:226 16.6607 
37 *541:226 *541:232 10.6429 
38 *541:232 *9496:A2 10.2643 
39 *541:232 *541:243 6.28571 
40 *541:243 *541:247 7.96429 
41 *541:247 *541:249 1.94643 
42 *541:249 *1110:DIODE 17.5321 
43 *541:249 *1112:DIODE 13.8 
44 *541:247 *541:275 12.4107 
45 *541:275 *9486:A2 16.9429 
46 *541:275 *541:294 5.53571 
47 *541:294 *9487:A2 9.3 
48 *541:294 *541:305 10.2321 
49 *541:305 *9488:A2 15.6036 
50 *541:305 *541:322 12.2143 
51 *541:322 *9494:A2 9.83571 
52 *541:322 *1126:DIODE 11.0679 
53 *541:243 *1114:DIODE 11.4786 
54 *541:226 *1130:DIODE 10.2464 
55 *541:218 *9495:A2 9.3 
56 *541:85 *1136:DIODE 9.3 
57 *541:83 *541:366 21.3393 
58 *541:366 *541:372 7.80357 
59 *541:372 *541:382 19.1786 
60 *541:382 *1108:DIODE 19.6393 
61 *541:382 *9485:A2 13.0321 
62 *541:372 *1106:DIODE 9.3 
63 *541:366 *9484:A2 15.5679 
*END

*D_NET *542 0.00163374
*CONN
*I *9501:B1 I *D sky130_fd_sc_hd__a21o_1
*I *9503:A2 I *D sky130_fd_sc_hd__o21a_1
*I *9500:Y O *D sky130_fd_sc_hd__nor2_1
*CAP
1 *9501:B1 0.00014487
2 *9503:A2 2.82147e-05
3 *9500:Y 0.000107444
4 *542:12 0.000280529
5 *9501:B1 *9501:A1 0
6 *9501:B1 *9504:A2 7.81878e-05
7 *9501:B1 *9514:B1 0.000187882
8 *9503:A2 *9514:B1 0
9 *9503:A1 *9501:B1 6.05161e-06
10 *9503:A1 *9503:A2 6.46382e-05
11 *9505:B *542:12 0.000109575
12 *440:25 *542:12 1.33343e-05
13 *538:12 *9501:B1 0.00055779
14 *538:12 *9503:A2 5.52238e-05
*RES
1 *9500:Y *542:12 20.175 
2 *542:12 *9503:A2 10.2643 
3 *542:12 *9501:B1 15.1929 
*END

*D_NET *543 0.000392787
*CONN
*I *9504:A1 I *D sky130_fd_sc_hd__a31o_1
*I *9502:Y O *D sky130_fd_sc_hd__inv_2
*CAP
1 *9504:A1 4.92467e-05
2 *9502:Y 4.92467e-05
3 *9504:A1 *9504:A2 0.00018077
4 *9504:A1 *9504:B1 1.74352e-05
5 *9504:A1 *784:37 9.60875e-05
*RES
1 *9502:Y *9504:A1 20.3679 
*END

*D_NET *544 0.00141222
*CONN
*I *9504:B1 I *D sky130_fd_sc_hd__a31o_1
*I *9503:X O *D sky130_fd_sc_hd__o21a_1
*CAP
1 *9504:B1 0.00048914
2 *9503:X 0.00048914
3 *9504:B1 *9233:B2 0
4 *9504:B1 *9507:A2 0.000230475
5 *9504:B1 *784:37 7.16452e-05
6 *9504:B1 *784:46 0.000114388
7 *9504:A1 *9504:B1 1.74352e-05
*RES
1 *9503:X *9504:B1 26.725 
*END

*D_NET *545 0.00232698
*CONN
*I *9506:B I *D sky130_fd_sc_hd__or2_1
*I *9507:A3 I *D sky130_fd_sc_hd__a32o_1
*I *9505:Y O *D sky130_fd_sc_hd__nor2_1
*CAP
1 *9506:B 0.000111359
2 *9507:A3 0.000323552
3 *9505:Y 0
4 *545:4 0.000434911
5 *9506:B *9509:A0 9.90367e-05
6 *9506:B *546:8 3.2534e-05
7 *9506:B *786:40 0
8 *9507:A3 *9317:A 0.000360109
9 *9507:A3 *9507:B1 7.03763e-05
10 *9507:A3 *9509:A0 0.000180777
11 *9507:A3 *9512:B1 0.000110835
12 *9507:A3 *9675:D 0.000102545
13 *9507:A3 *9676:CLK 0
14 *9507:A3 *786:40 4.56437e-05
15 *9507:A3 *787:27 7.0368e-05
16 *9505:B *9506:B 5.71472e-05
17 *9506:A *9506:B 0.000149945
18 *9508:A *9506:B 1.69961e-05
19 *9508:A *9507:A3 2.28598e-05
20 *438:34 *9507:A3 0.000137983
*RES
1 *9505:Y *545:4 9.3 
2 *545:4 *9507:A3 28.0857 
3 *545:4 *9506:B 21.425 
*END

*D_NET *546 0.00182593
*CONN
*I *9509:A1 I *D sky130_fd_sc_hd__mux2_1
*I *9507:B1 I *D sky130_fd_sc_hd__a32o_1
*I *9506:X O *D sky130_fd_sc_hd__or2_1
*CAP
1 *9509:A1 7.04334e-05
2 *9507:B1 0.000272874
3 *9506:X 0.000117657
4 *546:8 0.000460965
5 *9507:B1 *9317:A 0.000172528
6 *9507:B1 *9503:B1 2.39852e-05
7 *9507:B1 *9507:A2 2.57162e-05
8 *9507:B1 *783:10 4.06782e-05
9 *9507:B1 *783:14 9.60188e-05
10 *9509:A1 *741:164 0.000191194
11 *546:8 *9317:A 1.31516e-05
12 *546:8 *786:40 7.40992e-05
13 *9506:B *546:8 3.2534e-05
14 *9507:A3 *9507:B1 7.03763e-05
15 *9508:A *9509:A1 1.24368e-05
16 *9814:A *9507:B1 6.42242e-05
17 *438:34 *9509:A1 8.70594e-05
*RES
1 *9506:X *546:8 16.05 
2 *546:8 *9507:B1 21.1482 
3 *546:8 *9509:A1 15.9964 
*END

*D_NET *547 0.00117192
*CONN
*I *9509:A0 I *D sky130_fd_sc_hd__mux2_1
*I *9508:X O *D sky130_fd_sc_hd__and2_1
*CAP
1 *9509:A0 0.000360283
2 *9508:X 0.000360283
3 *9505:B *9509:A0 4.58976e-05
4 *9506:A *9509:A0 7.83659e-05
5 *9506:B *9509:A0 9.90367e-05
6 *9507:A3 *9509:A0 0.000180777
7 *9508:A *9509:A0 0
8 *438:34 *9509:A0 4.72818e-05
*RES
1 *9508:X *9509:A0 32.8679 
*END

*D_NET *548 0.000356457
*CONN
*I *9510:A I *D sky130_fd_sc_hd__clkbuf_1
*I *9509:X O *D sky130_fd_sc_hd__mux2_1
*CAP
1 *9510:A 0.00010465
2 *9509:X 0.00010465
3 *9510:A *9676:CLK 0.000129868
4 *9510:A *741:164 1.72894e-05
5 *9510:A *786:40 0
*RES
1 *9509:X *9510:A 29.7786 
*END

*D_NET *549 0.00458189
*CONN
*I *9514:A2 I *D sky130_fd_sc_hd__o21a_1
*I *9513:A3 I *D sky130_fd_sc_hd__a31o_1
*I *9512:A2 I *D sky130_fd_sc_hd__o21a_1
*I *9511:X O *D sky130_fd_sc_hd__and2_1
*CAP
1 *9514:A2 7.26505e-05
2 *9513:A3 0.000482622
3 *9512:A2 0
4 *9511:X 0.000125228
5 *549:16 0.000762306
6 *549:8 0.000477563
7 *9513:A3 *9512:B1 5.52302e-05
8 *9513:A3 *9513:B1 0.00052611
9 *9513:A3 *784:29 0.00014285
10 *9514:A2 *9504:A2 9.60939e-05
11 *549:8 *9316:C 9.25014e-06
12 *549:8 *9678:RESET_B 0
13 *549:8 *737:22 0.000267814
14 *549:16 *9500:A 2.44318e-05
15 *549:16 *737:22 0.00027622
16 *9500:B *549:16 0
17 *9504:A3 *9513:A3 0
18 *9505:B *549:8 0
19 *9505:B *549:16 3.48705e-05
20 *9512:A1 *549:16 0.000276211
21 *9513:A2 *9513:A3 6.33308e-05
22 *9678:D *549:8 3.9745e-05
23 *9678:D *549:16 2.8266e-06
24 *337:257 *549:16 0.000451463
25 *337:261 *9513:A3 7.54972e-05
26 *337:261 *549:16 0.000232399
27 *440:25 *549:16 8.71761e-05
*RES
1 *9511:X *549:8 17.2643 
2 *549:8 *549:16 14.6786 
3 *549:16 *9512:A2 9.3 
4 *549:16 *9513:A3 29.425 
5 *549:8 *9514:A2 14.7464 
*END

*D_NET *550 0.00137291
*CONN
*I *9513:B1 I *D sky130_fd_sc_hd__a31o_1
*I *9512:X O *D sky130_fd_sc_hd__o21a_1
*CAP
1 *9513:B1 0.000321645
2 *9512:X 0.000321645
3 *9513:B1 *9316:A 2.61337e-05
4 *9513:B1 *784:37 7.50601e-05
5 *9504:A3 *9513:B1 0
6 *9513:A2 *9513:B1 9.71197e-05
7 *9513:A3 *9513:B1 0.00052611
8 *337:261 *9513:B1 5.19842e-06
*RES
1 *9512:X *9513:B1 34.3857 
*END

*D_NET *551 0.00126726
*CONN
*I *9516:A I *D sky130_fd_sc_hd__clkbuf_1
*I *9515:X O *D sky130_fd_sc_hd__mux2_1
*CAP
1 *9516:A 0.000397081
2 *9515:X 0.000397081
3 *9516:A *9515:A1 7.86956e-05
4 *9516:A *9664:CLK 6.94623e-05
5 *9516:A *9679:RESET_B 0.000137054
6 *9516:A *589:61 7.54384e-05
7 *9516:A *589:131 0.000112451
8 *9516:A *790:10 0
*RES
1 *9515:X *9516:A 35.9929 
*END

*D_NET *552 0.000943496
*CONN
*I *9518:A I *D sky130_fd_sc_hd__clkbuf_1
*I *9517:X O *D sky130_fd_sc_hd__mux2_1
*CAP
1 *9518:A 0.000264233
2 *9517:X 0.000264233
3 *9518:A *9492:B2 0
4 *9518:A *840:25 1.59373e-05
5 *442:79 *9518:A 5.65955e-05
6 *442:90 *9518:A 0.000342497
*RES
1 *9517:X *9518:A 23.5643 
*END

*D_NET *553 0.000354863
*CONN
*I *9520:A I *D sky130_fd_sc_hd__clkbuf_1
*I *9519:X O *D sky130_fd_sc_hd__mux2_1
*CAP
1 *9520:A 9.05186e-05
2 *9519:X 9.05186e-05
3 *9520:A *9495:A1 5.52302e-05
4 *9519:S *9520:A 9.71197e-05
5 *9789:A *9520:A 2.14757e-05
*RES
1 *9519:X *9520:A 20.6893 
*END

*D_NET *554 0.000323103
*CONN
*I *9522:A I *D sky130_fd_sc_hd__clkbuf_1
*I *9521:X O *D sky130_fd_sc_hd__mux2_1
*CAP
1 *9522:A 8.94404e-05
2 *9521:X 8.94404e-05
3 *9522:A *9102:A 0.000144222
*RES
1 *9521:X *9522:A 20.6893 
*END

*D_NET *555 0.000844527
*CONN
*I *9524:A I *D sky130_fd_sc_hd__clkbuf_1
*I *9523:X O *D sky130_fd_sc_hd__mux2_1
*CAP
1 *9524:A 0.000215874
2 *9523:X 0.000215874
3 *9524:A *9683:CLK 8.07313e-05
4 *9524:A *9683:RESET_B 2.79092e-05
5 *9524:A *740:161 0.000197086
6 *9524:A *794:12 4.15914e-05
7 *9683:D *9524:A 6.54622e-05
*RES
1 *9523:X *9524:A 32.9036 
*END

*D_NET *556 0.00098299
*CONN
*I *9526:A I *D sky130_fd_sc_hd__clkbuf_1
*I *9525:X O *D sky130_fd_sc_hd__mux2_1
*CAP
1 *9526:A 0.000246793
2 *9525:X 0.000246793
3 *9526:A *9497:A1 3.19626e-05
4 *9526:A *9497:B2 0.00014285
5 *9526:A *9771:A 1.02504e-05
6 *9526:A *598:82 0.000139907
7 *9526:A *598:86 3.57844e-05
8 *9526:A *743:110 4.15914e-05
9 *1132:DIODE *9526:A 0
10 *9684:D *9526:A 8.70594e-05
*RES
1 *9525:X *9526:A 33.3143 
*END

*D_NET *557 0.000258058
*CONN
*I *9528:A I *D sky130_fd_sc_hd__clkbuf_1
*I *9527:X O *D sky130_fd_sc_hd__mux2_1
*CAP
1 *9528:A 0.000115074
2 *9527:X 0.000115074
3 *383:12 *9528:A 2.79092e-05
*RES
1 *9527:X *9528:A 29.6714 
*END

*D_NET *558 0.000313908
*CONN
*I *9530:A I *D sky130_fd_sc_hd__clkbuf_1
*I *9529:X O *D sky130_fd_sc_hd__mux2_1
*CAP
1 *9530:A 0.000119549
2 *9529:X 0.000119549
3 *9530:A *814:37 7.48091e-05
*RES
1 *9529:X *9530:A 20.8143 
*END

*D_NET *559 0.00160184
*CONN
*I *9532:A I *D sky130_fd_sc_hd__clkbuf_1
*I *9531:X O *D sky130_fd_sc_hd__mux2_1
*CAP
1 *9532:A 0.000268428
2 *9531:X 0.000268428
3 *9532:A *9686:CLK 0.000250201
4 *9532:A *588:29 4.70206e-05
5 *9532:A *799:23 0.000142856
6 *9532:A *802:16 0
7 *9532:A *814:41 0.000389854
8 *1149:DIODE *9532:A 2.28335e-05
9 *9462:A1 *9532:A 0.000132141
10 *442:152 *9532:A 8.00806e-05
*RES
1 *9531:X *9532:A 36.4214 
*END

*D_NET *560 0.000973384
*CONN
*I *9534:A I *D sky130_fd_sc_hd__clkbuf_1
*I *9533:X O *D sky130_fd_sc_hd__mux2_1
*CAP
1 *9534:A 0.000283661
2 *9533:X 0.000283661
3 *9534:A *9531:A1 0
4 *9534:A *9640:CLK 0
5 *9534:A *9657:RESET_B 0.000105744
6 *9534:A *584:342 8.82295e-05
7 *9534:A *588:98 5.33005e-05
8 *9534:A *802:16 0.000130339
9 *9534:A *832:18 2.84494e-05
*RES
1 *9533:X *9534:A 34.0286 
*END

*D_NET *561 0.000310944
*CONN
*I *9536:A I *D sky130_fd_sc_hd__clkbuf_1
*I *9535:X O *D sky130_fd_sc_hd__mux2_1
*CAP
1 *9536:A 0.000125537
2 *9535:X 0.000125537
3 *9536:A *9751:A 1.72894e-05
4 *9536:A *589:12 4.25809e-05
5 *9536:A *802:10 0
6 *9536:A *802:16 0
*RES
1 *9535:X *9536:A 29.7786 
*END

*D_NET *562 0.00138331
*CONN
*I *9538:A I *D sky130_fd_sc_hd__clkbuf_1
*I *9537:X O *D sky130_fd_sc_hd__mux2_1
*CAP
1 *9538:A 0.000546719
2 *9537:X 0.000546719
3 *9538:A *9067:B 0.000149911
4 *9538:A *9523:A0 2.56694e-05
5 *9538:A *9537:A0 6.09919e-05
6 *9538:A *835:28 5.33005e-05
7 *541:91 *9538:A 0
*RES
1 *9537:X *9538:A 35.0107 
*END

*D_NET *563 0.00104595
*CONN
*I *9540:A I *D sky130_fd_sc_hd__clkbuf_1
*I *9539:X O *D sky130_fd_sc_hd__mux2_1
*CAP
1 *9540:A 0.000363499
2 *9539:X 0.000363499
3 *9540:A *743:114 3.06878e-06
4 *9691:D *9540:A 4.15914e-05
5 *540:79 *9540:A 0.000274294
*RES
1 *9539:X *9540:A 33.0643 
*END

*D_NET *564 0.0014845
*CONN
*I *9542:A I *D sky130_fd_sc_hd__clkbuf_1
*I *9541:X O *D sky130_fd_sc_hd__mux2_1
*CAP
1 *9542:A 0.000411569
2 *9541:X 0.000411569
3 *9542:A *9489:A1 5.62995e-05
4 *9542:A *9693:CLK 2.49484e-05
5 *9542:A *740:187 0.000364953
6 *9692:D *9542:A 6.66927e-05
7 *9693:D *9542:A 0.000148466
8 *442:301 *9542:A 0
*RES
1 *9541:X *9542:A 37.7786 
*END

*D_NET *565 0.000190878
*CONN
*I *9544:A I *D sky130_fd_sc_hd__clkbuf_1
*I *9543:X O *D sky130_fd_sc_hd__mux2_1
*CAP
1 *9544:A 4.61139e-05
2 *9543:X 4.61139e-05
3 *442:60 *9544:A 9.28838e-05
4 *540:145 *9544:A 5.7661e-06
*RES
1 *9543:X *9544:A 19.8679 
*END

*D_NET *566 0.0384228
*CONN
*I *1164:DIODE I *D sky130_fd_sc_hd__diode_2
*I *9560:S I *D sky130_fd_sc_hd__mux2_1
*I *1161:DIODE I *D sky130_fd_sc_hd__diode_2
*I *9554:S I *D sky130_fd_sc_hd__mux2_1
*I *1160:DIODE I *D sky130_fd_sc_hd__diode_2
*I *9552:S I *D sky130_fd_sc_hd__mux2_1
*I *1162:DIODE I *D sky130_fd_sc_hd__diode_2
*I *9556:S I *D sky130_fd_sc_hd__mux2_1
*I *9550:S I *D sky130_fd_sc_hd__mux2_1
*I *1159:DIODE I *D sky130_fd_sc_hd__diode_2
*I *1157:DIODE I *D sky130_fd_sc_hd__diode_2
*I *9548:S I *D sky130_fd_sc_hd__mux2_1
*I *1158:DIODE I *D sky130_fd_sc_hd__diode_2
*I *1166:DIODE I *D sky130_fd_sc_hd__diode_2
*I *1165:DIODE I *D sky130_fd_sc_hd__diode_2
*I *9562:S I *D sky130_fd_sc_hd__mux2_1
*I *1170:DIODE I *D sky130_fd_sc_hd__diode_2
*I *9566:S I *D sky130_fd_sc_hd__mux2_1
*I *9574:S I *D sky130_fd_sc_hd__mux2_1
*I *9570:S I *D sky130_fd_sc_hd__mux2_1
*I *1169:DIODE I *D sky130_fd_sc_hd__diode_2
*I *9568:S I *D sky130_fd_sc_hd__mux2_1
*I *1171:DIODE I *D sky130_fd_sc_hd__diode_2
*I *1168:DIODE I *D sky130_fd_sc_hd__diode_2
*I *1167:DIODE I *D sky130_fd_sc_hd__diode_2
*I *9572:S I *D sky130_fd_sc_hd__mux2_1
*I *9564:S I *D sky130_fd_sc_hd__mux2_1
*I *9546:S I *D sky130_fd_sc_hd__mux2_1
*I *1173:DIODE I *D sky130_fd_sc_hd__diode_2
*I *9576:S I *D sky130_fd_sc_hd__mux2_1
*I *9558:S I *D sky130_fd_sc_hd__mux2_1
*I *1163:DIODE I *D sky130_fd_sc_hd__diode_2
*I *9545:X O *D sky130_fd_sc_hd__clkbuf_8
*CAP
1 *1164:DIODE 0.000830378
2 *9560:S 0
3 *1161:DIODE 0
4 *9554:S 0
5 *1160:DIODE 0.00011579
6 *9552:S 1.62167e-05
7 *1162:DIODE 0
8 *9556:S 0
9 *9550:S 0.000114101
10 *1159:DIODE 3.64828e-05
11 *1157:DIODE 5.75015e-05
12 *9548:S 7.12211e-05
13 *1158:DIODE 0
14 *1166:DIODE 3.72435e-05
15 *1165:DIODE 8.25132e-05
16 *9562:S 0.000388949
17 *1170:DIODE 0
18 *9566:S 0
19 *9574:S 0.00010341
20 *9570:S 0
21 *1169:DIODE 0
22 *9568:S 0.000179451
23 *1171:DIODE 0
24 *1168:DIODE 0
25 *1167:DIODE 0
26 *9572:S 0.000226424
27 *9564:S 0
28 *9546:S 2.23854e-05
29 *1173:DIODE 0
30 *9576:S 0.000296589
31 *9558:S 0
32 *1163:DIODE 0.000126472
33 *9545:X 0.000172686
34 *566:358 0.000929538
35 *566:328 0.000243736
36 *566:326 0.000210395
37 *566:324 0.00103212
38 *566:263 0.000584135
39 *566:261 0.000741381
40 *566:234 0.000730774
41 *566:208 0.000173359
42 *566:183 0.000303693
43 *566:176 0.000321917
44 *566:172 0.000469183
45 *566:164 0.000487488
46 *566:158 0.000298107
47 *566:152 0.000277472
48 *566:145 0.000879788
49 *566:130 0.00108012
50 *566:128 0.000449381
51 *566:119 0.000310711
52 *566:111 0.000555345
53 *566:86 0.000645116
54 *566:76 0.000784613
55 *566:70 0.000998711
56 *566:64 0.000731255
57 *566:62 0.000601243
58 *566:60 0.000606171
59 *566:56 0.000488183
60 *566:48 0.00050454
61 *566:44 0.00166828
62 *566:24 0.000263316
63 *566:22 0.000953019
64 *566:12 0.000570298
65 *1157:DIODE *9702:CLK 0.000123288
66 *1157:DIODE *738:109 5.10822e-05
67 *1160:DIODE *9552:A0 9.69119e-06
68 *1160:DIODE *820:25 0
69 *1160:DIODE *863:44 0
70 *1163:DIODE *9558:A1 0
71 *1163:DIODE *9734:A 0
72 *1164:DIODE *9463:D_N 0.000351162
73 *1164:DIODE *9560:A1 7.91826e-05
74 *1164:DIODE *9580:A1 0.000227532
75 *1164:DIODE *807:31 0.000199144
76 *1164:DIODE *807:40 0.000122591
77 *1166:DIODE *584:234 4.27935e-05
78 *9548:S *9476:A1 1.21289e-05
79 *9548:S *9548:A0 0.000140933
80 *9548:S *9548:A1 5.85965e-05
81 *9550:S *9550:A1 0.000266473
82 *9550:S *611:34 0.000356028
83 *9552:S *9552:A0 9.90367e-05
84 *9552:S *9555:A 5.62995e-05
85 *9562:S *9832:A 0.000157157
86 *9568:S *9568:A0 0.000122047
87 *9568:S *9568:A1 3.18676e-05
88 *9568:S *9569:A 0.00010096
89 *9572:S *9468:B2 0
90 *9572:S *9469:A1 0
91 *9572:S *9572:A1 1.92905e-05
92 *9572:S *9642:D 0
93 *9572:S *593:12 0
94 *9572:S *836:10 0
95 *9574:S *9569:A 9.90367e-05
96 *9574:S *9570:A1 0.00023978
97 *9574:S *9574:A0 0.000125445
98 *9574:S *9705:CLK 9.02331e-05
99 *9576:S *9576:A1 9.60771e-05
100 *566:12 *9221:A1 0.00037659
101 *566:12 *9701:CLK 0.000192773
102 *566:12 *597:20 0.000183818
103 *566:12 *796:42 4.58194e-05
104 *566:22 *9465:A 0.000361739
105 *566:22 *9559:A 0.000354052
106 *566:24 *9558:A0 0.000270326
107 *566:24 *9558:A1 5.52302e-05
108 *566:24 *9559:A 0.000139907
109 *566:44 *9155:B1 6.98302e-05
110 *566:44 *9628:RESET_B 0
111 *566:44 *9654:RESET_B 0
112 *566:44 *9797:A 0.000179596
113 *566:44 *785:33 0.00115769
114 *566:48 *9155:B1 0.000122689
115 *566:48 *785:33 0.00047497
116 *566:48 *819:44 0.000268514
117 *566:48 *821:74 2.49484e-05
118 *566:56 *9556:A1 4.2322e-05
119 *566:56 *821:84 9.60939e-05
120 *566:56 *822:14 0.00012105
121 *566:60 *611:34 0.000351867
122 *566:60 *817:25 0
123 *566:60 *822:29 1.02504e-05
124 *566:62 *9550:A1 3.71496e-05
125 *566:62 *9630:CLK 0
126 *566:62 *611:34 8.6229e-06
127 *566:62 *817:23 0
128 *566:64 *584:215 2.57126e-05
129 *566:64 *584:221 5.66551e-05
130 *566:64 *817:23 0
131 *566:70 *9546:A1 9.22948e-05
132 *566:70 *584:221 0.00032292
133 *566:70 *738:70 0
134 *566:76 *9546:A1 9.25014e-06
135 *566:76 *584:221 3.17148e-05
136 *566:76 *594:8 5.33433e-05
137 *566:76 *738:61 0
138 *566:86 *9647:RESET_B 0
139 *566:86 *775:14 0.000344301
140 *566:86 *863:10 0
141 *566:86 *863:28 0
142 *566:111 *584:221 0.000274294
143 *566:111 *584:234 0.000139907
144 *566:128 *9642:D 2.89114e-05
145 *566:130 *9468:B2 0
146 *566:130 *9642:D 0
147 *566:130 *593:10 0
148 *566:145 *9642:RESET_B 0.000116039
149 *566:145 *739:106 0.000312215
150 *566:145 *739:113 0.000229456
151 *566:152 *739:113 0.000170379
152 *566:158 *9567:A 0
153 *566:158 *743:90 0.000266099
154 *566:164 *593:67 9.41642e-05
155 *566:164 *743:90 0.000201127
156 *566:172 *9711:CLK 5.9483e-05
157 *566:172 *593:67 7.51192e-06
158 *566:172 *743:25 4.1331e-06
159 *566:172 *743:34 2.1527e-05
160 *566:172 *743:90 0.000171809
161 *566:176 *9568:A0 0.00013949
162 *566:183 *9568:A0 0.000104611
163 *566:208 *9570:A1 2.78584e-05
164 *566:208 *9574:A0 0.000139907
165 *566:208 *9705:CLK 0
166 *566:234 *9564:A1 0.000146629
167 *566:234 *760:8 0.000340066
168 *566:234 *760:12 0.000146474
169 *566:261 *9563:A 5.52238e-05
170 *566:261 *765:6 0.000519862
171 *566:263 *9476:A1 0.00010096
172 *566:263 *765:6 5.52238e-05
173 *566:324 *9792:A 2.89114e-05
174 *566:324 *798:20 0.000123527
175 *566:326 *9554:A1 0.00018372
176 *566:328 *9552:A0 0.000140933
177 *566:328 *9554:A0 1.74352e-05
178 *566:328 *9554:A1 5.71472e-05
179 *566:358 *9560:A1 9.90367e-05
180 *1045:DIODE *1164:DIODE 1.40306e-05
181 *1102:DIODE *566:44 6.19181e-05
182 *9445:A *9550:S 1.24368e-05
183 *9451:A *566:324 9.41642e-05
184 *9467:A2 *566:119 2.61337e-05
185 *9630:D *566:60 4.6025e-06
186 *9630:D *566:62 0.000116227
187 *9648:D *566:86 0
188 *9654:D *566:44 0
189 *9700:D *566:44 7.83587e-05
190 *9702:D *566:64 2.28335e-05
191 *9704:D *566:158 0
192 *9705:D *9574:S 9.90367e-05
193 *9706:D *566:164 0
194 *9706:D *566:172 0
195 *166:18 *566:64 0.000126322
196 *322:67 *566:324 0.000421472
197 *322:77 *566:324 5.71472e-05
198 *337:46 *566:234 0
199 *347:78 *9550:S 6.27058e-05
200 *369:201 *566:22 7.31177e-05
201 *369:201 *566:24 2.61014e-05
202 *369:248 *1159:DIODE 9.90431e-05
203 *369:248 *566:62 0
204 *441:10 *566:12 9.60875e-05
205 *536:12 *566:22 4.13496e-05
206 *536:12 *566:358 6.57914e-05
207 *537:93 *566:76 0.000218412
208 *537:93 *566:86 8.00431e-05
209 *537:93 *566:111 2.78608e-05
210 *537:97 *566:76 0
211 *537:97 *566:119 1.76039e-05
212 *537:227 *566:119 0.000399848
213 *537:227 *566:128 0.000274288
214 *537:360 *566:44 5.9378e-05
215 *539:37 *1163:DIODE 0
216 *539:246 *1157:DIODE 2.8266e-06
217 *539:292 *9548:S 0.000227539
218 *539:292 *566:263 6.09688e-05
*RES
1 *9545:X *566:12 24.2286 
2 *566:12 *566:22 8.21429 
3 *566:22 *566:24 3.82143 
4 *566:24 *1163:DIODE 20.2464 
5 *566:24 *9558:S 9.3 
6 *566:22 *566:44 19.5 
7 *566:44 *566:48 10.6964 
8 *566:48 *566:56 4.39286 
9 *566:56 *566:60 9.17857 
10 *566:60 *566:62 4.98214 
11 *566:62 *566:64 5.89286 
12 *566:64 *566:70 6.85714 
13 *566:70 *566:76 12.125 
14 *566:76 *566:86 15.8929 
15 *566:86 *9576:S 14.5679 
16 *566:86 *1173:DIODE 9.3 
17 *566:76 *9546:S 9.72857 
18 *566:70 *566:111 8.73214 
19 *566:111 *566:119 13.8571 
20 *566:119 *9564:S 9.3 
21 *566:119 *566:128 7.08929 
22 *566:128 *566:130 1.64286 
23 *566:130 *9572:S 17.8 
24 *566:130 *566:145 14.4821 
25 *566:145 *1167:DIODE 9.3 
26 *566:145 *566:152 1.76786 
27 *566:152 *566:158 12.4643 
28 *566:158 *566:164 8 
29 *566:164 *566:172 9.64286 
30 *566:172 *566:176 3.83929 
31 *566:176 *1168:DIODE 9.3 
32 *566:176 *566:183 2.58929 
33 *566:183 *1171:DIODE 9.3 
34 *566:183 *9568:S 13.55 
35 *566:172 *1169:DIODE 9.3 
36 *566:164 *566:208 6.28571 
37 *566:208 *9570:S 9.3 
38 *566:208 *9574:S 14.3536 
39 *566:158 *9566:S 9.3 
40 *566:152 *1170:DIODE 9.3 
41 *566:128 *566:234 11.3036 
42 *566:234 *9562:S 16.4161 
43 *566:234 *1165:DIODE 10.2464 
44 *566:111 *1166:DIODE 9.83571 
45 *566:64 *566:261 9.55357 
46 *566:261 *566:263 8.33929 
47 *566:263 *1158:DIODE 9.3 
48 *566:263 *9548:S 12.2107 
49 *566:261 *1157:DIODE 19.9429 
50 *566:62 *1159:DIODE 14.7464 
51 *566:60 *9550:S 18.05 
52 *566:56 *9556:S 9.3 
53 *566:48 *1162:DIODE 9.3 
54 *566:44 *566:324 19.8393 
55 *566:324 *566:326 2.17857 
56 *566:326 *566:328 2.58929 
57 *566:328 *9552:S 10.2464 
58 *566:328 *1160:DIODE 20.2464 
59 *566:326 *9554:S 9.3 
60 *566:324 *1161:DIODE 9.3 
61 *566:12 *566:358 2.17857 
62 *566:358 *9560:S 9.3 
63 *566:358 *1164:DIODE 23.1571 
*END

*D_NET *567 0.000750075
*CONN
*I *9547:A I *D sky130_fd_sc_hd__clkbuf_1
*I *9546:X O *D sky130_fd_sc_hd__mux2_1
*CAP
1 *9547:A 0.00022394
2 *9546:X 0.00022394
3 *9547:A *863:28 6.97972e-05
4 *537:93 *9547:A 0.000232399
*RES
1 *9546:X *9547:A 31.4214 
*END

*D_NET *568 0.00149823
*CONN
*I *9549:A I *D sky130_fd_sc_hd__clkbuf_1
*I *9548:X O *D sky130_fd_sc_hd__mux2_1
*CAP
1 *9549:A 0.000503459
2 *9548:X 0.000503459
3 *9549:A *9476:B2 2.15363e-05
4 *9549:A *710:8 0
5 *9549:A *755:14 0.000133797
6 *1095:DIODE *9549:A 0.000106524
7 *9265:A *9549:A 0
8 *539:292 *9549:A 0.000229456
*RES
1 *9548:X *9549:A 36.8679 
*END

*D_NET *569 0.00181307
*CONN
*I *9551:A I *D sky130_fd_sc_hd__clkbuf_1
*I *9550:X O *D sky130_fd_sc_hd__mux2_1
*CAP
1 *9551:A 0.000375487
2 *9550:X 0.000375487
3 *9551:A *9477:A1 0.000183726
4 *9551:A *9759:A 0.000313241
5 *9551:A *9801:A 5.71472e-05
6 *9551:A *584:215 0
7 *9551:A *738:109 0.000210435
8 *9551:A *738:132 4.98872e-05
9 *9551:A *826:22 0
10 *9696:D *9551:A 0.000202492
11 *166:18 *9551:A 4.51641e-05
*RES
1 *9550:X *9551:A 38.7429 
*END

*D_NET *570 0.000550336
*CONN
*I *9553:A I *D sky130_fd_sc_hd__clkbuf_1
*I *9552:X O *D sky130_fd_sc_hd__mux2_1
*CAP
1 *9553:A 0.000273323
2 *9552:X 0.000273323
3 *9553:A *9555:A 3.69047e-06
*RES
1 *9552:X *9553:A 22.7429 
*END

*D_NET *571 0.00124769
*CONN
*I *9555:A I *D sky130_fd_sc_hd__clkbuf_1
*I *9554:X O *D sky130_fd_sc_hd__mux2_1
*CAP
1 *9555:A 0.000381472
2 *9554:X 0.000381472
3 *9555:A *1212:DIODE 4.94338e-05
4 *9555:A *9552:A0 2.95641e-05
5 *9555:A *9552:A1 7.77751e-05
6 *9555:A *9698:RESET_B 0.00010096
7 *9555:A *9714:CLK 9.90367e-05
8 *9555:A *820:10 6.79842e-05
9 *9552:S *9555:A 5.62995e-05
10 *9553:A *9555:A 3.69047e-06
*RES
1 *9554:X *9555:A 34.3143 
*END

*D_NET *572 0.000459388
*CONN
*I *9557:A I *D sky130_fd_sc_hd__clkbuf_1
*I *9556:X O *D sky130_fd_sc_hd__mux2_1
*CAP
1 *9557:A 0.000138584
2 *9556:X 0.000138584
3 *9557:A *9556:A0 1.91894e-05
4 *9557:A *739:221 2.44318e-05
5 *1100:DIODE *9557:A 5.71472e-05
6 *9699:D *9557:A 2.56694e-05
7 *539:72 *9557:A 5.5782e-05
*RES
1 *9556:X *9557:A 30.4929 
*END

*D_NET *573 0.00139077
*CONN
*I *9559:A I *D sky130_fd_sc_hd__clkbuf_1
*I *9558:X O *D sky130_fd_sc_hd__mux2_1
*CAP
1 *9559:A 0.000193473
2 *9558:X 0.000193473
3 *9559:A *9236:A1 5.41794e-05
4 *9559:A *9465:A 5.33005e-05
5 *9700:D *9559:A 0.000348207
6 *344:208 *9559:A 5.41794e-05
7 *566:22 *9559:A 0.000354052
8 *566:24 *9559:A 0.000139907
*RES
1 *9558:X *9559:A 33.5107 
*END

*D_NET *574 0.00112842
*CONN
*I *9561:A I *D sky130_fd_sc_hd__clkbuf_1
*I *9560:X O *D sky130_fd_sc_hd__mux2_1
*CAP
1 *9561:A 0.000437643
2 *9560:X 0.000437643
3 *9561:A *9221:A1 7.83659e-05
4 *9561:A *9236:A1 0
5 *9561:A *9701:CLK 0.000170955
6 *9700:D *9561:A 0
7 *9701:D *9561:A 3.81416e-06
*RES
1 *9560:X *9561:A 33.9036 
*END

*D_NET *575 0.000487654
*CONN
*I *9563:A I *D sky130_fd_sc_hd__clkbuf_1
*I *9562:X O *D sky130_fd_sc_hd__mux2_1
*CAP
1 *9563:A 0.00016046
2 *9562:X 0.00016046
3 *9563:A *765:6 0.000111511
4 *566:261 *9563:A 5.52238e-05
*RES
1 *9562:X *9563:A 21.9214 
*END

*D_NET *576 0.00135565
*CONN
*I *9565:A I *D sky130_fd_sc_hd__clkbuf_1
*I *9564:X O *D sky130_fd_sc_hd__mux2_1
*CAP
1 *9565:A 0.000295985
2 *9564:X 0.000295985
3 *9565:A *9703:CLK 2.1527e-05
4 *9565:A *584:234 0.000201277
5 *9565:A *593:10 3.38229e-05
6 *9565:A *704:8 0.000507057
7 *9565:A *739:167 0
8 *9565:A *760:8 0
*RES
1 *9564:X *9565:A 35.0464 
*END

*D_NET *577 0.00034887
*CONN
*I *9567:A I *D sky130_fd_sc_hd__clkbuf_1
*I *9566:X O *D sky130_fd_sc_hd__mux2_1
*CAP
1 *9567:A 0.000126219
2 *9566:X 0.000126219
3 *9567:A *9566:A1 5.71472e-05
4 *9567:A *860:25 0
5 *9704:D *9567:A 3.92854e-05
6 *566:158 *9567:A 0
*RES
1 *9566:X *9567:A 29.7786 
*END

*D_NET *578 0.00102919
*CONN
*I *9569:A I *D sky130_fd_sc_hd__clkbuf_1
*I *9568:X O *D sky130_fd_sc_hd__mux2_1
*CAP
1 *9569:A 0.000308034
2 *9568:X 0.000308034
3 *9569:A *9705:CLK 9.90367e-05
4 *9569:A *9708:CLK 0
5 *9569:A *593:71 0
6 *9569:A *860:8 0.000114092
7 *9568:S *9569:A 0.00010096
8 *9574:S *9569:A 9.90367e-05
*RES
1 *9568:X *9569:A 33.5643 
*END

*D_NET *579 0.000572438
*CONN
*I *9571:A I *D sky130_fd_sc_hd__clkbuf_1
*I *9570:X O *D sky130_fd_sc_hd__mux2_1
*CAP
1 *9571:A 0.000198911
2 *9570:X 0.000198911
3 *9571:A *9570:A0 7.52646e-06
4 *9571:A *9574:A0 1.40415e-05
5 *9571:A *593:67 0.000153047
6 *9571:A *815:10 0
*RES
1 *9570:X *9571:A 30.9036 
*END

*D_NET *580 0.00028062
*CONN
*I *9573:A I *D sky130_fd_sc_hd__clkbuf_1
*I *9572:X O *D sky130_fd_sc_hd__mux2_1
*CAP
1 *9573:A 0.000102213
2 *9572:X 0.000102213
3 *9573:A *9572:A0 7.61932e-05
*RES
1 *9572:X *9573:A 20.6893 
*END

*D_NET *581 0.000948353
*CONN
*I *9575:A I *D sky130_fd_sc_hd__clkbuf_1
*I *9574:X O *D sky130_fd_sc_hd__mux2_1
*CAP
1 *9575:A 0.000250015
2 *9574:X 0.000250015
3 *9575:A *9704:RESET_B 0
4 *9575:A *9705:RESET_B 0
5 *9575:A *739:120 2.89016e-05
6 *9575:A *739:131 9.31893e-05
7 *9708:D *9575:A 9.86999e-05
8 *348:240 *9575:A 0
9 *348:244 *9575:A 0.000227532
10 *362:10 *9575:A 0
*RES
1 *9574:X *9575:A 33.85 
*END

*D_NET *582 0.00014024
*CONN
*I *9577:A I *D sky130_fd_sc_hd__clkbuf_1
*I *9576:X O *D sky130_fd_sc_hd__mux2_1
*CAP
1 *9577:A 7.01202e-05
2 *9576:X 7.01202e-05
*RES
1 *9576:X *9577:A 19.8679 
*END

*D_NET *583 0.0010789
*CONN
*I *9579:A I *D sky130_fd_sc_hd__clkbuf_1
*I *9578:X O *D sky130_fd_sc_hd__mux2_1
*CAP
1 *9579:A 0.000481364
2 *9578:X 0.000481364
3 *9579:A *9671:D 4.25809e-05
4 *9579:A *598:18 0
5 *9237:A *9579:A 5.62995e-05
6 *9710:D *9579:A 0
7 *383:12 *9579:A 1.72894e-05
*RES
1 *9578:X *9579:A 34.975 
*END

*D_NET *584 0.0555841
*CONN
*I *9727:A I *D sky130_fd_sc_hd__clkbuf_16
*I *1223:DIODE I *D sky130_fd_sc_hd__diode_2
*I *9730:A I *D sky130_fd_sc_hd__clkbuf_16
*I *1224:DIODE I *D sky130_fd_sc_hd__diode_2
*I *9729:A I *D sky130_fd_sc_hd__clkbuf_16
*I *1225:DIODE I *D sky130_fd_sc_hd__diode_2
*I *9728:A I *D sky130_fd_sc_hd__clkbuf_16
*I *1222:DIODE I *D sky130_fd_sc_hd__diode_2
*I *1231:DIODE I *D sky130_fd_sc_hd__diode_2
*I *1232:DIODE I *D sky130_fd_sc_hd__diode_2
*I *9737:A I *D sky130_fd_sc_hd__clkbuf_16
*I *9736:A I *D sky130_fd_sc_hd__clkbuf_16
*I *1229:DIODE I *D sky130_fd_sc_hd__diode_2
*I *1230:DIODE I *D sky130_fd_sc_hd__diode_2
*I *9735:A I *D sky130_fd_sc_hd__clkbuf_16
*I *1226:DIODE I *D sky130_fd_sc_hd__diode_2
*I *1219:DIODE I *D sky130_fd_sc_hd__diode_2
*I *9731:A I *D sky130_fd_sc_hd__clkbuf_16
*I *9724:A I *D sky130_fd_sc_hd__clkbuf_16
*I *1228:DIODE I *D sky130_fd_sc_hd__diode_2
*I *1227:DIODE I *D sky130_fd_sc_hd__diode_2
*I *9732:A I *D sky130_fd_sc_hd__clkbuf_16
*I *9733:A I *D sky130_fd_sc_hd__clkbuf_16
*I *9734:A I *D sky130_fd_sc_hd__clkbuf_16
*I *1234:DIODE I *D sky130_fd_sc_hd__diode_2
*I *1233:DIODE I *D sky130_fd_sc_hd__diode_2
*I *9726:A I *D sky130_fd_sc_hd__clkbuf_16
*I *1221:DIODE I *D sky130_fd_sc_hd__diode_2
*I *1220:DIODE I *D sky130_fd_sc_hd__diode_2
*I *9725:A I *D sky130_fd_sc_hd__clkbuf_16
*I *9738:A I *D sky130_fd_sc_hd__clkbuf_16
*I *9739:A I *D sky130_fd_sc_hd__clkbuf_16
*I *9723:X O *D sky130_fd_sc_hd__clkbuf_16
*CAP
1 *9727:A 0
2 *1223:DIODE 0.000424904
3 *9730:A 0
4 *1224:DIODE 0
5 *9729:A 0.000110417
6 *1225:DIODE 0
7 *9728:A 0
8 *1222:DIODE 0
9 *1231:DIODE 0
10 *1232:DIODE 0
11 *9737:A 0.000202294
12 *9736:A 0
13 *1229:DIODE 0
14 *1230:DIODE 0
15 *9735:A 0
16 *1226:DIODE 0
17 *1219:DIODE 0.000126116
18 *9731:A 0.000159064
19 *9724:A 0
20 *1228:DIODE 0
21 *1227:DIODE 0.000532524
22 *9732:A 0
23 *9733:A 0
24 *9734:A 0.000135486
25 *1234:DIODE 0
26 *1233:DIODE 0
27 *9726:A 2.23854e-05
28 *1221:DIODE 3.7235e-05
29 *1220:DIODE 6.94382e-05
30 *9725:A 2.04425e-05
31 *9738:A 0
32 *9739:A 0
33 *9723:X 6.73288e-05
34 *584:389 0.0002285
35 *584:383 0.000215523
36 *584:376 0.00071029
37 *584:369 0.000821202
38 *584:365 0.000765244
39 *584:361 0.000763962
40 *584:342 0.0023318
41 *584:271 0.000126116
42 *584:234 0.000691324
43 *584:221 0.000442075
44 *584:215 0.00136066
45 *584:201 0.00112329
46 *584:199 0.000333127
47 *584:197 0.00266198
48 *584:177 0.0026166
49 *584:175 0.000215099
50 *584:173 0.000132317
51 *584:160 0.00198628
52 *584:142 0.00233037
53 *584:140 0.000707307
54 *584:138 0.000141026
55 *584:136 0.00169738
56 *584:128 0.0050459
57 *584:98 0.000253328
58 *584:83 0.000361492
59 *584:72 0.000738464
60 *584:61 0.000920267
61 *584:53 0.000765652
62 *584:38 0.00137298
63 *584:24 0.00321894
64 *584:14 0.00414264
65 *1219:DIODE *771:10 0.00018372
66 *1223:DIODE *9718:RESET_B 0.000183659
67 *1223:DIODE *730:72 0
68 *1227:DIODE *9467:B2 0.000357054
69 *9731:A *9477:A1 0.000126629
70 *9731:A *611:34 0.000110107
71 *9734:A *9558:A1 5.71472e-05
72 *9737:A *9685:CLK 0.000122985
73 *9737:A *597:66 8.61678e-05
74 *584:14 *790:24 2.22164e-05
75 *584:24 *9625:SET_B 2.1527e-05
76 *584:24 *744:236 3.38332e-05
77 *584:24 *895:120 0.000342467
78 *584:38 *9625:SET_B 1.60258e-05
79 *584:38 *742:61 4.32957e-05
80 *584:38 *757:74 0
81 *584:38 *895:120 0.0003571
82 *584:53 *696:16 0.000183035
83 *584:53 *742:61 1.78353e-05
84 *584:61 *731:83 0
85 *584:61 *749:90 0
86 *584:61 *865:12 4.57538e-05
87 *584:72 *9268:A 0.000274294
88 *584:72 *9605:CLK 0
89 *584:72 *586:12 0
90 *584:72 *745:49 0.000701659
91 *584:72 *895:47 0
92 *584:83 *586:12 0
93 *584:98 *705:14 0
94 *584:136 *794:12 0
95 *584:138 *9685:CLK 5.30637e-06
96 *584:140 *9685:CLK 1.92905e-05
97 *584:142 *9655:D 4.08637e-05
98 *584:142 *9685:CLK 2.60984e-05
99 *584:142 *597:8 0.000226592
100 *584:142 *597:56 8.00431e-05
101 *584:160 *9655:D 5.33005e-05
102 *584:160 *597:8 1.58163e-05
103 *584:160 *597:12 0.000153047
104 *584:160 *740:101 8.681e-05
105 *584:197 *9558:A1 0
106 *584:197 *595:60 0
107 *584:197 *609:36 0
108 *584:197 *818:43 1.90936e-05
109 *584:197 *895:120 9.45773e-05
110 *584:197 *897:82 9.67237e-05
111 *584:199 *818:43 0.000256262
112 *584:199 *863:28 0.000100329
113 *584:201 *818:43 0.000153047
114 *584:201 *863:28 7.57869e-05
115 *584:215 *585:14 5.28157e-05
116 *584:215 *817:23 3.15196e-05
117 *584:215 *818:43 0.000105689
118 *584:215 *826:22 7.6644e-05
119 *584:215 *863:28 0.000174888
120 *584:215 *894:22 0.00124066
121 *584:221 *817:23 0.000259481
122 *584:234 *593:10 6.51946e-05
123 *584:234 *704:8 1.08359e-05
124 *584:342 *9657:RESET_B 9.06586e-05
125 *584:342 *9798:A 0
126 *584:342 *802:16 5.98769e-05
127 *584:342 *832:18 3.52562e-05
128 *584:361 *9798:A 7.48091e-05
129 *584:361 *616:14 0
130 *584:361 *769:12 0
131 *584:361 *802:16 0
132 *584:365 *9718:RESET_B 3.17163e-05
133 *584:365 *730:72 0
134 *584:365 *747:105 0.000107503
135 *584:376 *591:6 0.000195455
136 *584:376 *591:12 0.000398345
137 *584:383 *591:6 0.000151061
138 *1163:DIODE *9734:A 0
139 *1166:DIODE *584:234 4.27935e-05
140 *9244:A *584:24 0.000519333
141 *9275:A *584:24 0.000134189
142 *9298:A *584:72 3.25078e-05
143 *9300:B *584:72 0.000244989
144 *9408:B *9729:A 0
145 *9428:A0 *584:38 4.50033e-05
146 *9429:A *584:53 6.5185e-05
147 *9453:A *584:197 0
148 *9467:A2 *584:221 0
149 *9482:B1 *584:160 8.25843e-06
150 *9483:A *9737:A 5.52302e-05
151 *9534:A *584:342 8.82295e-05
152 *9551:A *584:215 0
153 *9565:A *584:234 0.000201277
154 *9602:D *584:72 0.000328619
155 *9602:D *584:83 0.000163847
156 *9622:D *584:53 7.83659e-05
157 *9763:A *1223:DIODE 4.0342e-06
158 *238:8 *584:160 0.000324321
159 *322:260 *9725:A 2.59355e-05
160 *322:303 *584:83 0
161 *322:303 *584:98 0
162 *322:316 *584:98 0
163 *344:220 *584:175 0.000318101
164 *344:220 *584:177 0.000186669
165 *347:103 *584:38 2.59355e-05
166 *347:103 *584:53 7.48091e-05
167 *347:143 *1220:DIODE 5.33433e-05
168 *347:143 *584:98 0
169 *369:201 *9734:A 5.52302e-05
170 *369:290 *584:38 0
171 *369:290 *584:61 0.000173921
172 *369:290 *584:72 0.00024769
173 *372:18 *9737:A 9.99644e-06
174 *404:42 *1221:DIODE 2.27416e-05
175 *404:42 *584:98 1.92789e-05
176 *404:63 *584:24 0.0001471
177 *404:65 *584:24 0.000140878
178 *404:71 *584:24 1.02504e-05
179 *404:71 *584:38 4.32309e-05
180 *421:40 *9725:A 5.33005e-05
181 *421:40 *584:72 0.000133914
182 *442:328 *9737:A 7.33225e-05
183 *446:12 *584:98 0
184 *537:28 *584:197 0
185 *537:40 *9731:A 0.000276211
186 *537:93 *584:221 0.000276211
187 *537:93 *584:234 4.18895e-05
188 *537:227 *584:234 0.000356035
189 *539:31 *9734:A 0
190 *539:80 *584:197 3.4323e-06
191 *539:80 *584:199 1.08175e-05
192 *539:270 *1227:DIODE 0.000193318
193 *540:349 *9737:A 4.90888e-05
194 *540:349 *584:136 0
195 *540:370 *584:138 0.000274294
196 *541:14 *9737:A 1.91004e-05
197 *566:64 *584:215 2.57126e-05
198 *566:64 *584:221 5.66551e-05
199 *566:70 *584:221 0.00032292
200 *566:76 *584:221 3.17148e-05
201 *566:111 *584:221 0.000274294
202 *566:111 *584:234 0.000139907
*RES
1 *9723:X *584:14 20.9798 
2 *584:14 *584:24 15.5227 
3 *584:24 *584:38 15.2254 
4 *584:38 *9739:A 9.3 
5 *584:38 *584:53 16.6429 
6 *584:53 *584:61 15.4643 
7 *584:61 *9738:A 9.3 
8 *584:61 *584:72 21.1429 
9 *584:72 *9725:A 14.3357 
10 *584:72 *584:83 2.25 
11 *584:83 *1220:DIODE 14.7464 
12 *584:83 *584:98 7.58929 
13 *584:98 *1221:DIODE 9.83571 
14 *584:98 *9726:A 9.72857 
15 *584:53 *1233:DIODE 9.3 
16 *584:24 *1234:DIODE 13.8 
17 *584:14 *584:128 6.54647 
18 *584:128 *584:136 11.8317 
19 *584:136 *584:138 3 
20 *584:138 *584:140 0.535714 
21 *584:140 *584:142 8.75 
22 *584:142 *584:160 19.6804 
23 *584:160 *9734:A 15.9786 
24 *584:160 *584:173 4.5 
25 *584:173 *584:175 3 
26 *584:175 *584:177 1.76786 
27 *584:177 *584:197 27.1583 
28 *584:197 *584:199 3.46429 
29 *584:199 *584:201 1.94643 
30 *584:201 *584:215 15.6383 
31 *584:215 *584:221 14.8036 
32 *584:221 *9733:A 9.3 
33 *584:221 *584:234 14.4643 
34 *584:234 *9732:A 9.3 
35 *584:234 *1227:DIODE 18.8714 
36 *584:215 *1228:DIODE 13.8 
37 *584:201 *9724:A 13.8 
38 *584:199 *9731:A 18.4429 
39 *584:197 *584:271 4.5 
40 *584:271 *1219:DIODE 11.0679 
41 *584:271 *1226:DIODE 9.3 
42 *584:177 *9735:A 9.3 
43 *584:175 *1230:DIODE 9.3 
44 *584:173 *1229:DIODE 9.3 
45 *584:142 *9736:A 9.3 
46 *584:140 *9737:A 23.4964 
47 *584:138 *1232:DIODE 9.3 
48 *584:136 *1231:DIODE 9.3 
49 *584:128 *584:342 15.9814 
50 *584:342 *1222:DIODE 9.3 
51 *584:342 *584:361 18.5179 
52 *584:361 *584:365 7.66071 
53 *584:365 *584:369 7.91071 
54 *584:369 *9728:A 9.3 
55 *584:369 *584:376 14.0893 
56 *584:376 *1225:DIODE 9.3 
57 *584:376 *584:383 2.58929 
58 *584:383 *584:389 10.9464 
59 *584:389 *9729:A 11.2821 
60 *584:389 *1224:DIODE 9.3 
61 *584:383 *9730:A 9.3 
62 *584:365 *1223:DIODE 21.7107 
63 *584:361 *9727:A 9.3 
*END

*D_NET *585 0.008621
*CONN
*I *9696:CLK I *D sky130_fd_sc_hd__dfrtp_2
*I *9650:CLK I *D sky130_fd_sc_hd__dfrtp_1
*I *9709:CLK I *D sky130_fd_sc_hd__dfrtp_2
*I *9649:CLK I *D sky130_fd_sc_hd__dfrtp_1
*I *9651:CLK I *D sky130_fd_sc_hd__dfrtp_1
*I *9716:CLK I *D sky130_fd_sc_hd__dfrtp_1
*I *9695:CLK I *D sky130_fd_sc_hd__dfrtp_4
*I *9724:X O *D sky130_fd_sc_hd__clkbuf_16
*CAP
1 *9696:CLK 2.42972e-05
2 *9650:CLK 0.000244941
3 *9709:CLK 0.000774177
4 *9649:CLK 0
5 *9651:CLK 0
6 *9716:CLK 2.00323e-05
7 *9695:CLK 4.91913e-05
8 *9724:X 0.000410623
9 *585:51 0.00110831
10 *585:33 0.000125344
11 *585:18 0.000423728
12 *585:16 0.000679983
13 *585:14 0.0004395
14 *585:8 0.000552851
15 *9650:CLK *9650:D 7.77751e-05
16 *9650:CLK *826:22 4.8843e-05
17 *9650:CLK *855:25 0.000252102
18 *9695:CLK *9476:B2 7.02611e-05
19 *9696:CLK *9082:A 2.28598e-05
20 *9709:CLK *9475:A1 3.93893e-05
21 *9709:CLK *9548:A0 0.000177941
22 *9709:CLK *9649:D 8.07313e-05
23 *9709:CLK *9649:RESET_B 0.000269422
24 *9709:CLK *738:84 5.80706e-06
25 *9716:CLK *9759:A 5.71472e-05
26 *585:8 *9082:A 5.33005e-05
27 *585:8 *818:31 0.00026353
28 *585:14 *818:43 5.59013e-05
29 *585:14 *826:22 4.92928e-05
30 *585:16 *9476:B2 2.59355e-05
31 *585:16 *9650:RESET_B 0.000202537
32 *585:16 *826:22 2.00884e-05
33 *585:16 *855:25 0.000108535
34 *585:18 *9476:B2 0.000447546
35 *585:18 *9650:RESET_B 0.000305535
36 *585:18 *9695:RESET_B 1.66373e-05
37 *585:18 *732:62 0.00011307
38 *585:33 *9716:RESET_B 8.91417e-05
39 *585:51 *9477:A1 4.89264e-05
40 *585:51 *9548:A0 0
41 *585:51 *9548:A1 0
42 *585:51 *818:31 5.31113e-05
43 *9475:B1 *9709:CLK 5.01213e-05
44 *9695:D *9695:CLK 7.02611e-05
45 *537:50 *585:33 7.66473e-05
46 *537:63 *9709:CLK 0
47 *537:65 *9709:CLK 0
48 *537:69 *9709:CLK 0
49 *539:82 *585:51 0.000342361
50 *539:84 *585:51 0.000187019
51 *539:90 *9709:CLK 0
52 *539:90 *585:51 3.34295e-05
53 *539:124 *9709:CLK 0
54 *584:215 *585:14 5.28157e-05
*RES
1 *9724:X *585:8 16.425 
2 *585:8 *585:14 11.25 
3 *585:14 *585:16 2.58929 
4 *585:16 *585:18 7.92857 
5 *585:18 *9695:CLK 10.6571 
6 *585:18 *585:33 11.6786 
7 *585:33 *9716:CLK 9.83571 
8 *585:33 *9651:CLK 9.3 
9 *585:16 *585:51 16.4107 
10 *585:51 *9649:CLK 9.3 
11 *585:51 *9709:CLK 33.675 
12 *585:14 *9650:CLK 15.175 
13 *585:8 *9696:CLK 9.83571 
*END

*D_NET *586 0.00699418
*CONN
*I *9598:CLK I *D sky130_fd_sc_hd__dfrtp_2
*I *9601:CLK I *D sky130_fd_sc_hd__dfrtp_4
*I *9602:CLK I *D sky130_fd_sc_hd__dfrtp_1
*I *9599:CLK I *D sky130_fd_sc_hd__dfrtp_1
*I *9600:CLK I *D sky130_fd_sc_hd__dfrtp_2
*I *9605:CLK I *D sky130_fd_sc_hd__dfrtp_1
*I *9725:X O *D sky130_fd_sc_hd__clkbuf_16
*CAP
1 *9598:CLK 6.20081e-05
2 *9601:CLK 0.000281928
3 *9602:CLK 3.72884e-05
4 *9599:CLK 0.000535645
5 *9600:CLK 8.07547e-05
6 *9605:CLK 0.000512777
7 *9725:X 0.000122711
8 *586:29 0.0006164
9 *586:16 0.000595652
10 *586:14 0.000247061
11 *586:12 0.000720056
12 *586:6 0.000495949
13 *9599:CLK *9599:RESET_B 0.000144773
14 *9599:CLK *696:16 1.77347e-05
15 *9601:CLK *1036:DIODE 0.000298655
16 *9605:CLK *729:56 7.77751e-05
17 *586:6 *742:12 0.000172309
18 *586:12 *742:12 0.000227539
19 *586:14 *9290:C 4.15914e-05
20 *9244:A *9601:CLK 0.000322446
21 *9288:B *9598:CLK 7.83366e-05
22 *9292:B *586:14 0
23 *9292:B *586:16 0
24 *9293:A *9605:CLK 0
25 *9293:A *586:16 0
26 *9297:A *586:12 9.11806e-06
27 *9297:A *586:14 6.87975e-06
28 *9297:C *586:12 0.000107843
29 *9297:C *586:14 2.06112e-05
30 *9297:D *586:14 0
31 *9298:A *9600:CLK 7.08482e-05
32 *9298:A *9605:CLK 4.46186e-06
33 *9298:A *586:14 6.39901e-05
34 *9298:A *586:16 7.71321e-05
35 *9300:B *586:14 1.23973e-05
36 *9301:B *9601:CLK 1.28585e-05
37 *9301:C *9601:CLK 0.000204846
38 *9306:D *9601:CLK 3.18676e-05
39 *9599:D *9599:CLK 0.000339806
40 *9599:D *9605:CLK 0
41 *9600:D *9600:CLK 7.77652e-05
42 *9605:D *9605:CLK 9.38887e-05
43 *322:262 *586:12 1.78353e-05
44 *322:303 *9598:CLK 7.83366e-05
45 *322:303 *586:12 1.37292e-05
46 *421:40 *586:12 3.02351e-05
47 *421:40 *586:14 1.08413e-05
48 *446:12 *9601:CLK 1.94945e-05
49 *584:72 *9605:CLK 0
50 *584:72 *586:12 0
51 *584:83 *586:12 0
*RES
1 *9725:X *586:6 11.0679 
2 *586:6 *586:12 9.6875 
3 *586:12 *586:14 2.70536 
4 *586:14 *586:16 1.94643 
5 *586:16 *9605:CLK 23.175 
6 *586:16 *586:29 4.5 
7 *586:29 *9600:CLK 11.5143 
8 *586:29 *9599:CLK 17.675 
9 *586:14 *9602:CLK 14.3357 
10 *586:12 *9601:CLK 22.4164 
11 *586:6 *9598:CLK 20.2464 
*END

*D_NET *587 0.0107852
*CONN
*I *9606:CLK I *D sky130_fd_sc_hd__dfrtp_1
*I *9609:CLK I *D sky130_fd_sc_hd__dfrtp_1
*I *9608:CLK I *D sky130_fd_sc_hd__dfrtp_1
*I *9607:CLK I *D sky130_fd_sc_hd__dfrtp_1
*I *9621:CLK I *D sky130_fd_sc_hd__dfrtp_1
*I *9603:CLK I *D sky130_fd_sc_hd__dfrtp_1
*I *9597:CLK I *D sky130_fd_sc_hd__dfrtp_2
*I *9604:CLK I *D sky130_fd_sc_hd__dfrtp_1
*I *9726:X O *D sky130_fd_sc_hd__clkbuf_16
*CAP
1 *9606:CLK 0.000204377
2 *9609:CLK 0.000332009
3 *9608:CLK 0.000183547
4 *9607:CLK 0
5 *9621:CLK 0.000332296
6 *9603:CLK 3.99307e-05
7 *9597:CLK 0.000124922
8 *9604:CLK 0.000114197
9 *9726:X 0.00035181
10 *587:81 0.00065868
11 *587:70 0.000594366
12 *587:66 0.000801457
13 *587:42 0.00121112
14 *587:36 0.00114839
15 *587:14 0.000385224
16 *587:10 0.000661577
17 *9604:CLK *9313:A1 1.58163e-05
18 *9604:CLK *898:6 4.00679e-05
19 *9606:CLK *731:28 2.72859e-05
20 *9608:CLK *882:20 0.000410271
21 *9609:CLK *9278:C 7.31032e-05
22 *9621:CLK *9865:A 1.3701e-05
23 *587:14 *898:6 0.000111439
24 *587:42 *9284:A 0.000122091
25 *587:70 *9607:RESET_B 0.000179357
26 *587:70 *748:41 0.000619931
27 *587:81 *9607:RESET_B 2.95641e-05
28 *9284:C *587:42 1.74352e-05
29 *9285:B *9597:CLK 0
30 *9314:A *587:42 0.000192934
31 *9314:C *587:42 6.04072e-05
32 *9315:A *9597:CLK 2.58997e-05
33 *9326:B *587:42 1.32552e-05
34 *9326:C *587:42 5.76659e-05
35 *9366:C_N *9609:CLK 0
36 *9374:A *9608:CLK 0.000142856
37 *9375:A *9609:CLK 0
38 *9375:A *587:81 0
39 *9422:A2 *9606:CLK 4.56437e-05
40 *9422:A2 *587:66 5.59013e-05
41 *9424:A *587:42 0.000154027
42 *9597:D *9597:CLK 0.000208706
43 *9597:D *587:10 0
44 *9597:D *587:36 0
45 *9603:D *587:42 1.92789e-05
46 *9604:D *9597:CLK 0.000106882
47 *9606:D *9606:CLK 3.99614e-06
48 *9607:D *9609:CLK 0.000157967
49 *9607:D *587:81 0.000181966
50 *9608:D *9608:CLK 1.74352e-05
51 *9621:D *9621:CLK 0.000218266
52 *322:316 *587:10 0.000144773
53 *322:338 *587:42 2.07491e-05
54 *404:14 *9606:CLK 0
55 *404:14 *587:10 0
56 *404:14 *587:36 0
57 *404:14 *587:66 0
58 *405:80 *9621:CLK 0
59 *406:10 *9621:CLK 1.72798e-05
60 *407:84 *9606:CLK 6.07532e-05
61 *407:84 *587:36 1.65304e-05
62 *407:84 *587:42 2.65105e-05
63 *407:84 *587:66 3.15101e-05
64 *470:12 *9606:CLK 0
*RES
1 *9726:X *587:10 19.5321 
2 *587:10 *587:14 7.5 
3 *587:14 *9604:CLK 11.0679 
4 *587:14 *9597:CLK 21.3893 
5 *587:10 *587:36 2.85714 
6 *587:36 *587:42 16.1429 
7 *587:42 *9603:CLK 10.0321 
8 *587:42 *9621:CLK 23.0679 
9 *587:36 *587:66 2.25 
10 *587:66 *587:70 14.8929 
11 *587:70 *9607:CLK 9.3 
12 *587:70 *587:81 7.80357 
13 *587:81 *9608:CLK 18.4607 
14 *587:81 *9609:CLK 18.9607 
15 *587:66 *9606:CLK 18.0321 
*END

*D_NET *588 0.00995809
*CONN
*I *9659:CLK I *D sky130_fd_sc_hd__dfrtp_1
*I *9688:CLK I *D sky130_fd_sc_hd__dfrtp_2
*I *9640:CLK I *D sky130_fd_sc_hd__dfrtp_1
*I *9657:CLK I *D sky130_fd_sc_hd__dfrtp_1
*I *9682:CLK I *D sky130_fd_sc_hd__dfrtp_4
*I *9656:CLK I *D sky130_fd_sc_hd__dfrtp_1
*I *9687:CLK I *D sky130_fd_sc_hd__dfrtp_2
*I *9686:CLK I *D sky130_fd_sc_hd__dfrtp_1
*I *9658:CLK I *D sky130_fd_sc_hd__dfrtp_1
*I *9727:X O *D sky130_fd_sc_hd__clkbuf_16
*CAP
1 *9659:CLK 2.23134e-05
2 *9688:CLK 0
3 *9640:CLK 0.0003243
4 *9657:CLK 0
5 *9682:CLK 0.000328119
6 *9656:CLK 0.000281456
7 *9687:CLK 5.11978e-05
8 *9686:CLK 0.000439229
9 *9658:CLK 0
10 *9727:X 0.000374418
11 *588:98 0.00067819
12 *588:63 0.000974068
13 *588:57 0.000789256
14 *588:53 0.000778654
15 *588:29 0.000775415
16 *588:18 0.000442286
17 *588:16 0.00034582
18 *588:14 0.000585253
19 *9640:CLK *9657:RESET_B 5.49919e-05
20 *9640:CLK *9798:A 0
21 *9640:CLK *616:14 0
22 *9656:CLK *9656:D 2.84109e-05
23 *9656:CLK *793:22 0
24 *9659:CLK *9659:RESET_B 0.000142856
25 *9659:CLK *832:18 0.000123475
26 *9682:CLK *793:22 0
27 *588:14 *9486:A1 1.56e-05
28 *588:14 *646:14 7.83659e-05
29 *588:18 *802:16 0
30 *588:29 *802:16 0
31 *588:98 *9657:RESET_B 8.10675e-05
32 *588:98 *832:18 9.71197e-05
33 *1111:DIODE *588:14 0.000270229
34 *9462:A1 *588:29 4.75428e-05
35 *9485:A2 *9686:CLK 1.3701e-05
36 *9486:A2 *588:14 1.45274e-05
37 *9532:A *9686:CLK 0.000250201
38 *9532:A *588:29 4.70206e-05
39 *9534:A *9640:CLK 0
40 *9534:A *588:98 5.33005e-05
41 *9658:D *588:14 5.33005e-05
42 *9658:D *588:16 0
43 *9658:D *588:18 0
44 *9686:D *9686:CLK 3.72932e-05
45 *9688:D *588:98 9.90367e-05
46 *9779:A *9656:CLK 8.55156e-05
47 *9779:A *9682:CLK 5.37741e-06
48 *299:27 *588:18 4.46186e-06
49 *383:14 *588:57 4.34749e-05
50 *383:14 *588:63 0.000414742
51 *383:14 *588:98 9.70943e-05
52 *442:127 *588:14 0
53 *442:127 *588:16 0
54 *442:127 *588:18 0
55 *442:152 *588:29 0.000125724
56 *442:194 *9686:CLK 0.000250915
57 *442:194 *9687:CLK 7.51141e-05
58 *442:194 *588:29 3.34366e-05
59 *540:212 *588:14 5.33005e-05
60 *540:370 *9656:CLK 7.09184e-05
*RES
1 *9727:X *588:14 21.3179 
2 *588:14 *588:16 3.16071 
3 *588:16 *588:18 1.94643 
4 *588:18 *9658:CLK 13.8 
5 *588:18 *588:29 5.92857 
6 *588:29 *9686:CLK 21.5143 
7 *588:29 *9687:CLK 14.7464 
8 *588:16 *588:53 4.5 
9 *588:53 *588:57 5.26786 
10 *588:57 *588:63 12.4464 
11 *588:63 *9656:CLK 19.05 
12 *588:63 *9682:CLK 19.4429 
13 *588:57 *9657:CLK 9.3 
14 *588:53 *588:98 6.73214 
15 *588:98 *9640:CLK 22.9786 
16 *588:98 *9688:CLK 9.3 
17 *588:14 *9659:CLK 15.1571 
*END

*D_NET *589 0.0145816
*CONN
*I *9689:CLK I *D sky130_fd_sc_hd__dfrtp_1
*I *9690:CLK I *D sky130_fd_sc_hd__dfrtp_1
*I *9664:CLK I *D sky130_fd_sc_hd__dfrtp_1
*I *9679:CLK I *D sky130_fd_sc_hd__dfrtp_4
*I *9582:CLK I *D sky130_fd_sc_hd__dfrtp_1
*I *9584:CLK I *D sky130_fd_sc_hd__dfrtp_1
*I *9660:CLK I *D sky130_fd_sc_hd__dfrtp_1
*I *9665:CLK I *D sky130_fd_sc_hd__dfrtp_1
*I *9666:CLK I *D sky130_fd_sc_hd__dfrtp_1
*I *9680:CLK I *D sky130_fd_sc_hd__dfrtp_4
*I *9681:CLK I *D sky130_fd_sc_hd__dfrtp_4
*I *9668:CLK I *D sky130_fd_sc_hd__dfrtp_1
*I *9667:CLK I *D sky130_fd_sc_hd__dfrtp_1
*I *9728:X O *D sky130_fd_sc_hd__clkbuf_16
*CAP
1 *9689:CLK 0
2 *9690:CLK 2.06597e-05
3 *9664:CLK 7.32487e-05
4 *9679:CLK 9.97561e-05
5 *9582:CLK 0
6 *9584:CLK 0.000212193
7 *9660:CLK 0.000344096
8 *9665:CLK 0.000121919
9 *9666:CLK 0
10 *9680:CLK 0.000275652
11 *9681:CLK 0.000127504
12 *9668:CLK 0
13 *9667:CLK 0
14 *9728:X 0.000206944
15 *589:131 0.000281179
16 *589:102 0.000556289
17 *589:100 0.000512656
18 *589:79 0.000701999
19 *589:72 0.000826704
20 *589:63 0.00103493
21 *589:61 0.000584282
22 *589:47 0.000310011
23 *589:43 0.000885456
24 *589:35 0.00119128
25 *589:20 0.00118553
26 *589:12 0.000448696
27 *9584:CLK *9328:A1 1.21289e-05
28 *9584:CLK *9328:B1 0.00010096
29 *9584:CLK *730:60 0
30 *9584:CLK *746:92 0
31 *9660:CLK *9660:D 6.29635e-05
32 *9660:CLK *746:81 0.000127353
33 *9660:CLK *746:92 0
34 *9664:CLK *9664:D 7.6612e-06
35 *9665:CLK *9665:D 4.57445e-05
36 *9679:CLK *9664:D 6.68086e-05
37 *9679:CLK *9664:RESET_B 9.58126e-05
38 *9681:CLK *9668:RESET_B 7.47337e-05
39 *589:12 *9751:A 4.37999e-05
40 *589:12 *616:14 0
41 *589:12 *802:10 0
42 *589:20 *9689:RESET_B 0.000247622
43 *589:20 *791:38 0.000202128
44 *589:20 *802:10 0.000143635
45 *589:20 *835:14 7.46814e-05
46 *589:20 *835:28 0.000158497
47 *589:35 *9488:B2 1.04232e-05
48 *589:35 *9667:D 5.52238e-05
49 *589:35 *9787:A 2.72859e-05
50 *589:47 *9668:RESET_B 9.91108e-05
51 *589:61 *9493:A1 0.000238324
52 *589:72 *9665:D 7.43578e-06
53 *589:72 *9679:RESET_B 4.83516e-05
54 *589:72 *9680:RESET_B 0.000648347
55 *589:72 *842:10 4.35436e-05
56 *589:79 *9665:D 3.18676e-05
57 *1130:DIODE *589:35 7.07155e-06
58 *1143:DIODE *9681:CLK 2.59355e-05
59 *9328:A2 *9584:CLK 3.18676e-05
60 *9332:A *9660:CLK 0
61 *9488:B1 *589:20 6.60598e-05
62 *9516:A *9664:CLK 6.94623e-05
63 *9516:A *589:61 7.54384e-05
64 *9516:A *589:131 0.000112451
65 *9536:A *589:12 4.25809e-05
66 *9581:D *9584:CLK 0.000188586
67 *9582:D *9660:CLK 3.79467e-05
68 *9668:D *9681:CLK 1.98839e-05
69 *9668:D *589:47 7.19508e-05
70 *9679:D *9664:CLK 8.85018e-05
71 *9679:D *589:131 5.71124e-05
72 *9680:D *589:61 0
73 *9689:D *589:20 5.52238e-05
74 *9690:D *589:43 4.82865e-05
75 *9763:A *9660:CLK 0
76 *9803:A *589:100 0.000324167
77 *373:12 *589:43 0
78 *373:12 *589:61 0
79 *373:14 *9664:CLK 0
80 *373:14 *589:61 0
81 *373:14 *589:131 0
82 *442:79 *589:61 5.28442e-06
83 *540:181 *589:43 0.000149959
84 *540:181 *589:61 0.000239055
85 *540:248 *589:20 5.71472e-05
86 *540:277 *589:61 4.22387e-05
87 *541:218 *589:61 5.33614e-05
88 *541:226 *589:35 3.47702e-06
89 *541:226 *589:43 3.30871e-05
*RES
1 *9728:X *589:12 21.6036 
2 *589:12 *589:20 17.0179 
3 *589:20 *9667:CLK 9.3 
4 *589:20 *589:35 11.3929 
5 *589:35 *589:43 9.05357 
6 *589:43 *589:47 7.91071 
7 *589:47 *9668:CLK 9.3 
8 *589:47 *9681:CLK 11.8893 
9 *589:43 *589:61 9.83929 
10 *589:61 *589:63 4.5 
11 *589:63 *9680:CLK 13.5321 
12 *589:63 *589:72 14.5 
13 *589:72 *9666:CLK 9.3 
14 *589:72 *589:79 1.35714 
15 *589:79 *9665:CLK 20.8536 
16 *589:79 *589:100 19.0536 
17 *589:100 *589:102 4.5 
18 *589:102 *9660:CLK 21.4786 
19 *589:102 *9584:CLK 19.7643 
20 *589:100 *9582:CLK 9.3 
21 *589:61 *589:131 2.85714 
22 *589:131 *9679:CLK 15.9964 
23 *589:131 *9664:CLK 15.7464 
24 *589:35 *9690:CLK 9.72857 
25 *589:12 *9689:CLK 9.3 
*END

*D_NET *590 0.012189
*CONN
*I *9611:CLK I *D sky130_fd_sc_hd__dfrtp_1
*I *9610:CLK I *D sky130_fd_sc_hd__dfrtp_1
*I *9612:CLK I *D sky130_fd_sc_hd__dfrtp_1
*I *9615:CLK I *D sky130_fd_sc_hd__dfrtp_1
*I *9616:CLK I *D sky130_fd_sc_hd__dfrtp_1
*I *9617:CLK I *D sky130_fd_sc_hd__dfrtp_1
*I *9620:CLK I *D sky130_fd_sc_hd__dfrtp_1
*I *9619:CLK I *D sky130_fd_sc_hd__dfrtp_1
*I *9618:CLK I *D sky130_fd_sc_hd__dfrtp_1
*I *9614:CLK I *D sky130_fd_sc_hd__dfrtp_1
*I *9729:X O *D sky130_fd_sc_hd__clkbuf_16
*CAP
1 *9611:CLK 0.000318051
2 *9610:CLK 0.0001437
3 *9612:CLK 0
4 *9615:CLK 3.82418e-05
5 *9616:CLK 0
6 *9617:CLK 0.000112017
7 *9620:CLK 2.61003e-05
8 *9619:CLK 0
9 *9618:CLK 0.000137035
10 *9614:CLK 0.00061655
11 *9729:X 0
12 *590:104 0.000700816
13 *590:93 0.000979639
14 *590:39 0.000283767
15 *590:37 0.000569402
16 *590:35 0.000587492
17 *590:31 0.00117847
18 *590:27 0.0011378
19 *590:10 0.00101818
20 *590:4 0.0011422
21 *9610:CLK *9384:B1 3.17148e-05
22 *9610:CLK *9385:A 0.000171368
23 *9617:CLK *730:72 0
24 *9618:CLK *730:72 0
25 *9618:CLK *730:82 0
26 *9620:CLK *808:33 2.89114e-05
27 *590:31 *1184:DIODE 2.24782e-05
28 *590:31 *9405:A 0.000193814
29 *590:31 *749:141 4.63499e-05
30 *590:31 *749:159 0.000109314
31 *590:35 *1184:DIODE 9.7659e-05
32 *590:37 *730:72 0
33 *590:37 *749:130 0
34 *590:39 *730:72 0
35 *590:39 *749:130 0
36 *590:93 *9612:RESET_B 9.23759e-05
37 *590:93 *887:6 9.66457e-05
38 *590:93 *887:32 9.77061e-05
39 *590:93 *887:53 8.80451e-05
40 *590:104 *9384:B1 0.000159689
41 *590:104 *9393:B 0.000219835
42 *590:104 *887:53 2.44318e-05
43 *1002:DIODE *9610:CLK 5.66647e-05
44 *1002:DIODE *9611:CLK 3.32631e-05
45 *1002:DIODE *590:104 6.82922e-05
46 *9384:A2 *9610:CLK 0
47 *9385:C *9610:CLK 0.00010096
48 *9387:A *9611:CLK 0.000196743
49 *9388:B *590:104 5.52302e-05
50 *9389:B *590:104 1.52978e-05
51 *9398:A *9614:CLK 0
52 *9399:A *9614:CLK 9.60875e-05
53 *9401:A *9614:CLK 0
54 *9401:B *9614:CLK 0.000104974
55 *9405:B *9614:CLK 0
56 *9411:A *9617:CLK 3.34366e-05
57 *9411:A *590:37 0.000125724
58 *9415:A *9618:CLK 0.00012438
59 *9420:A *9614:CLK 3.57366e-05
60 *9611:D *9611:CLK 5.94862e-05
61 *9612:D *590:93 1.06225e-05
62 *9613:D *590:93 5.17614e-05
63 *9614:D *9614:CLK 2.44318e-05
64 *9615:D *9614:CLK 4.25809e-05
65 *9617:D *9617:CLK 3.79467e-05
66 *9618:D *9618:CLK 7.83659e-05
67 *9619:D *9618:CLK 1.69115e-05
68 *9619:D *590:39 4.1331e-06
69 *9620:D *590:39 0
70 *383:14 *9610:CLK 5.33433e-05
71 *407:42 *9614:CLK 0
72 *412:10 *9614:CLK 6.76272e-05
73 *412:16 *9614:CLK 2.8266e-06
74 *487:46 *590:104 8.33463e-05
75 *499:14 *9614:CLK 0.00013906
*RES
1 *9729:X *590:4 9.3 
2 *590:4 *590:10 9.35714 
3 *590:10 *9614:CLK 25.8536 
4 *590:10 *590:27 4.5 
5 *590:27 *590:31 14.3036 
6 *590:31 *590:35 6.26786 
7 *590:35 *590:37 7.41071 
8 *590:37 *590:39 2.55357 
9 *590:39 *9618:CLK 17.1214 
10 *590:39 *9619:CLK 13.8 
11 *590:37 *9620:CLK 14.3357 
12 *590:35 *9617:CLK 16.3536 
13 *590:31 *9616:CLK 9.3 
14 *590:27 *9615:CLK 10.0321 
15 *590:4 *590:93 13.8929 
16 *590:93 *9612:CLK 9.3 
17 *590:93 *590:104 10.9464 
18 *590:104 *9610:CLK 17.6036 
19 *590:104 *9611:CLK 20.5143 
*END

*D_NET *591 0.0134247
*CONN
*I *9613:CLK I *D sky130_fd_sc_hd__dfrtp_1
*I *9719:CLK I *D sky130_fd_sc_hd__dfrtp_1
*I *9721:CLK I *D sky130_fd_sc_hd__dfrtp_4
*I *9720:CLK I *D sky130_fd_sc_hd__dfrtp_1
*I *9581:CLK I *D sky130_fd_sc_hd__dfrtp_1
*I *9583:CLK I *D sky130_fd_sc_hd__dfrtp_1
*I *9718:CLK I *D sky130_fd_sc_hd__dfrtp_1
*I *9730:X O *D sky130_fd_sc_hd__clkbuf_16
*CAP
1 *9613:CLK 0.000189436
2 *9719:CLK 0.000194396
3 *9721:CLK 0.000306354
4 *9720:CLK 0
5 *9581:CLK 0.000164755
6 *9583:CLK 0.000431639
7 *9718:CLK 8.61686e-05
8 *9730:X 0
9 *591:70 0.00110745
10 *591:57 0.00204015
11 *591:42 0.00229943
12 *591:12 0.00120376
13 *591:6 0.00227915
14 *591:4 0.0010814
15 *9581:CLK *9816:A 0.000170898
16 *9583:CLK *9330:A1 5.26184e-05
17 *9583:CLK *9330:A2 0
18 *9583:CLK *9583:D 4.15914e-05
19 *9583:CLK *9583:RESET_B 3.18676e-05
20 *9583:CLK *730:72 0
21 *9719:CLK *9719:D 5.33433e-05
22 *9721:CLK *9721:RESET_B 4.96254e-05
23 *9721:CLK *730:200 0.000346525
24 *591:12 *730:72 0
25 *591:42 *9581:RESET_B 0.000106542
26 *591:42 *614:8 6.74911e-05
27 *591:57 *9816:A 4.88631e-05
28 *591:57 *749:159 0
29 *591:70 *9720:D 5.52238e-05
30 *9331:B *9583:CLK 0
31 *9581:D *9581:CLK 7.56856e-05
32 *9718:D *9583:CLK 0
33 *393:10 *9719:CLK 0.000117135
34 *393:10 *591:70 7.83366e-05
35 *584:376 *591:6 0.000195455
36 *584:376 *591:12 0.000398345
37 *584:383 *591:6 0.000151061
*RES
1 *9730:X *591:4 9.3 
2 *591:4 *591:6 11.625 
3 *591:6 *591:12 15.2679 
4 *591:12 *9718:CLK 15.1571 
5 *591:12 *9583:CLK 21.9964 
6 *591:6 *591:42 22.7857 
7 *591:42 *9581:CLK 13.5321 
8 *591:42 *591:57 33.3036 
9 *591:57 *9720:CLK 9.3 
10 *591:57 *591:70 12.6429 
11 *591:70 *9721:CLK 21.3179 
12 *591:70 *9719:CLK 18.0321 
13 *591:4 *9613:CLK 12.6214 
*END

*D_NET *592 0.0119642
*CONN
*I *9653:CLK I *D sky130_fd_sc_hd__dfrtp_1
*I *9652:CLK I *D sky130_fd_sc_hd__dfrtp_1
*I *9697:CLK I *D sky130_fd_sc_hd__dfrtp_2
*I *9713:CLK I *D sky130_fd_sc_hd__dfstp_1
*I *9698:CLK I *D sky130_fd_sc_hd__dfrtp_2
*I *9714:CLK I *D sky130_fd_sc_hd__dfstp_2
*I *9699:CLK I *D sky130_fd_sc_hd__dfrtp_2
*I *9633:CLK I *D sky130_fd_sc_hd__dfrtp_1
*I *9630:CLK I *D sky130_fd_sc_hd__dfrtp_1
*I *9731:X O *D sky130_fd_sc_hd__clkbuf_16
*CAP
1 *9653:CLK 0
2 *9652:CLK 5.65071e-05
3 *9697:CLK 0
4 *9713:CLK 0.000552916
5 *9698:CLK 0
6 *9714:CLK 0.000610594
7 *9699:CLK 0
8 *9633:CLK 0.000268061
9 *9630:CLK 0.000183088
10 *9731:X 8.52538e-05
11 *592:81 0.00140162
12 *592:77 0.00100632
13 *592:59 0.000652866
14 *592:57 0.000548159
15 *592:55 0.000801573
16 *592:20 0.000611692
17 *592:14 0.000521925
18 *592:8 0.000843425
19 *9630:CLK *9082:A 5.76121e-05
20 *9630:CLK *9550:A1 0.000123288
21 *9630:CLK *9630:RESET_B 0.000142856
22 *9630:CLK *611:34 3.1877e-05
23 *9633:CLK *9479:B2 6.05161e-06
24 *9633:CLK *9556:A0 0.00015234
25 *9633:CLK *9633:RESET_B 1.77294e-05
26 *9633:CLK *611:34 7.68746e-05
27 *9713:CLK *9713:D 0.000188586
28 *9713:CLK *9713:SET_B 7.70134e-05
29 *9713:CLK *9777:A 7.83587e-05
30 *9714:CLK *9698:RESET_B 0.000195732
31 *592:8 *738:132 0
32 *592:8 *818:43 7.83221e-05
33 *592:8 *826:22 6.65398e-05
34 *592:8 *863:88 2.95642e-05
35 *592:14 *826:22 7.77751e-05
36 *592:14 *863:88 5.33005e-05
37 *592:20 *863:88 4.45768e-06
38 *592:55 *9478:B2 0.000132282
39 *592:55 *9479:A1 0
40 *592:55 *9653:D 0.000104974
41 *592:55 *738:132 0
42 *592:55 *818:43 5.78715e-05
43 *592:55 *821:49 9.23451e-05
44 *592:55 *827:25 2.58997e-05
45 *592:55 *863:88 0.000151984
46 *592:57 *9698:RESET_B 0.000116869
47 *592:57 *821:10 3.18676e-05
48 *592:57 *821:49 4.43256e-05
49 *592:59 *9698:RESET_B 6.57914e-05
50 *592:77 *9552:A0 0
51 *592:77 *820:10 7.60306e-05
52 *592:81 *9697:RESET_B 4.73514e-05
53 *592:81 *9777:A 4.00276e-06
54 *592:81 *820:10 3.67142e-05
55 *9217:A *9633:CLK 0
56 *9217:A *592:14 0.000271345
57 *9555:A *9714:CLK 9.90367e-05
58 *9697:D *592:81 0.00014285
59 *9698:D *9714:CLK 2.89114e-05
60 *9698:D *592:59 6.91207e-05
61 *9699:D *9633:CLK 0.000295974
62 *9699:D *592:20 1.07719e-05
63 *347:28 *9713:CLK 0
64 *347:78 *592:8 9.25014e-06
65 *369:10 *592:14 3.98462e-05
66 *369:10 *592:20 0
67 *369:248 *9630:CLK 0.000302406
68 *369:248 *9633:CLK 3.66334e-05
69 *369:248 *592:14 1.98839e-05
70 *537:303 *592:55 4.75723e-05
71 *566:62 *9630:CLK 0
*RES
1 *9731:X *592:8 16.05 
2 *592:8 *592:14 11.5179 
3 *592:14 *592:20 6.58929 
4 *592:20 *9630:CLK 19.2286 
5 *592:20 *9633:CLK 20.05 
6 *592:14 *9699:CLK 9.3 
7 *592:8 *592:55 13.375 
8 *592:55 *592:57 7.51786 
9 *592:57 *592:59 1.35714 
10 *592:59 *9714:CLK 20.1036 
11 *592:59 *9698:CLK 9.3 
12 *592:57 *592:77 10.9464 
13 *592:77 *592:81 10.3036 
14 *592:81 *9713:CLK 28.4964 
15 *592:81 *9697:CLK 9.3 
16 *592:77 *9652:CLK 10.6929 
17 *592:55 *9653:CLK 9.3 
*END

*D_NET *593 0.0127792
*CONN
*I *9703:CLK I *D sky130_fd_sc_hd__dfrtp_1
*I *9642:CLK I *D sky130_fd_sc_hd__dfrtp_1
*I *9707:CLK I *D sky130_fd_sc_hd__dfrtp_1
*I *9706:CLK I *D sky130_fd_sc_hd__dfrtp_1
*I *9704:CLK I *D sky130_fd_sc_hd__dfrtp_1
*I *9705:CLK I *D sky130_fd_sc_hd__dfrtp_1
*I *9708:CLK I *D sky130_fd_sc_hd__dfrtp_1
*I *9711:CLK I *D sky130_fd_sc_hd__dfrtp_1
*I *9644:CLK I *D sky130_fd_sc_hd__dfrtp_1
*I *9643:CLK I *D sky130_fd_sc_hd__dfrtp_1
*I *9732:X O *D sky130_fd_sc_hd__clkbuf_16
*CAP
1 *9703:CLK 0.000471181
2 *9642:CLK 7.46253e-05
3 *9707:CLK 3.16868e-05
4 *9706:CLK 4.47007e-05
5 *9704:CLK 0
6 *9705:CLK 0.000226317
7 *9708:CLK 0.000414775
8 *9711:CLK 0.000723921
9 *9644:CLK 1.91209e-05
10 *9643:CLK 0.000116675
11 *9732:X 0.00035334
12 *593:71 0.000805844
13 *593:67 0.000557677
14 *593:46 0.00111685
15 *593:44 0.000432832
16 *593:35 0.000527092
17 *593:22 0.000643272
18 *593:12 0.000756318
19 *593:10 0.000650557
20 *593:8 0.00108258
21 *9642:CLK *9572:A0 7.43578e-06
22 *9643:CLK *9469:A1 0
23 *9643:CLK *9643:D 0.000104227
24 *9643:CLK *9644:D 0.000128154
25 *9643:CLK *9707:RESET_B 0
26 *9644:CLK *743:49 0
27 *9705:CLK *9574:A0 0.000405614
28 *9705:CLK *9574:A1 0.000149489
29 *9706:CLK *9706:RESET_B 2.28598e-05
30 *9707:CLK *9570:A0 5.33433e-05
31 *9708:CLK *9706:RESET_B 4.01768e-05
32 *9708:CLK *9708:RESET_B 2.38671e-05
33 *9708:CLK *743:90 0
34 *9711:CLK *9711:D 8.07313e-05
35 *9711:CLK *743:10 0
36 *9711:CLK *743:25 0
37 *9711:CLK *815:10 0
38 *593:10 *9642:D 2.79092e-05
39 *593:10 *704:8 0
40 *593:10 *760:8 0
41 *593:10 *760:12 0
42 *593:12 *9572:A0 7.83659e-05
43 *593:12 *9642:D 2.19778e-05
44 *593:12 *9775:A 2.49484e-05
45 *593:12 *9842:A 0
46 *593:12 *704:8 0
47 *593:22 *9842:A 8.90199e-05
48 *593:22 *704:8 0
49 *593:22 *849:35 0.000101545
50 *593:44 *9706:RESET_B 5.33334e-05
51 *593:44 *9707:RESET_B 9.60939e-05
52 *593:44 *739:8 0.000166416
53 *593:44 *743:40 5.74499e-06
54 *593:67 *9566:A0 0.000183412
55 *593:67 *9566:A1 0.000274288
56 *593:67 *743:90 0
57 *593:67 *815:10 0
58 *593:71 *743:90 0
59 *593:71 *860:8 0
60 *593:71 *860:25 0
61 *9565:A *9703:CLK 2.1527e-05
62 *9565:A *593:10 3.38229e-05
63 *9569:A *9705:CLK 9.90367e-05
64 *9569:A *9708:CLK 0
65 *9569:A *593:71 0
66 *9571:A *593:67 0.000153047
67 *9572:S *593:12 0
68 *9574:S *9705:CLK 9.02331e-05
69 *9703:D *9703:CLK 1.1979e-05
70 *9705:D *9705:CLK 2.77289e-05
71 *9706:D *9706:CLK 1.73305e-05
72 *9706:D *593:67 0.000269521
73 *9707:D *9707:CLK 3.18676e-05
74 *9707:D *593:12 8.00806e-05
75 *539:270 *593:8 0.000528337
76 *566:130 *593:10 0
77 *566:164 *593:67 9.41642e-05
78 *566:172 *9711:CLK 5.9483e-05
79 *566:172 *593:67 7.51192e-06
80 *566:208 *9705:CLK 0
81 *584:234 *593:10 6.51946e-05
*RES
1 *9732:X *593:8 18.8536 
2 *593:8 *593:10 4.98214 
3 *593:10 *593:12 5.58929 
4 *593:12 *593:22 10.4107 
5 *593:22 *9643:CLK 21.1571 
6 *593:22 *593:35 1.76786 
7 *593:35 *9644:CLK 9.72857 
8 *593:35 *593:44 6.69643 
9 *593:44 *593:46 4.5 
10 *593:46 *9711:CLK 26.3714 
11 *593:46 *593:67 15.0536 
12 *593:67 *593:71 7.35714 
13 *593:71 *9708:CLK 19.175 
14 *593:71 *9705:CLK 20.5321 
15 *593:67 *9704:CLK 9.3 
16 *593:44 *9706:CLK 10.2643 
17 *593:12 *9707:CLK 14.7464 
18 *593:10 *9642:CLK 15.0679 
19 *593:8 *9703:CLK 19.8 
*END

*D_NET *594 0.00584605
*CONN
*I *9702:CLK I *D sky130_fd_sc_hd__dfrtp_2
*I *9641:CLK I *D sky130_fd_sc_hd__dfrtp_1
*I *9694:CLK I *D sky130_fd_sc_hd__dfrtp_4
*I *9645:CLK I *D sky130_fd_sc_hd__dfrtp_1
*I *9647:CLK I *D sky130_fd_sc_hd__dfrtp_1
*I *9646:CLK I *D sky130_fd_sc_hd__dfrtp_1
*I *9648:CLK I *D sky130_fd_sc_hd__dfrtp_1
*I *9733:X O *D sky130_fd_sc_hd__clkbuf_16
*CAP
1 *9702:CLK 0.000316685
2 *9641:CLK 0
3 *9694:CLK 0.000135052
4 *9645:CLK 0.00026321
5 *9647:CLK 0.000121311
6 *9646:CLK 0.000221023
7 *9648:CLK 0.000213977
8 *9733:X 1.99167e-05
9 *594:77 0.000482862
10 *594:62 0.000456643
11 *594:27 0.00045871
12 *594:25 0.000562009
13 *594:10 0.000550624
14 *594:8 0.000329554
15 *9645:CLK *9645:D 2.27416e-05
16 *9645:CLK *9769:A 4.88637e-05
17 *9646:CLK *9473:B2 0
18 *9647:CLK *9647:D 5.71472e-05
19 *9648:CLK *9546:A0 5.33334e-05
20 *9648:CLK *738:42 0.000239114
21 *9648:CLK *775:14 0
22 *9702:CLK *738:70 3.2006e-05
23 *9702:CLK *738:109 7.28898e-05
24 *594:10 *9546:A0 5.26184e-05
25 *594:10 *738:61 0
26 *594:10 *775:14 0
27 *594:25 *9769:A 0
28 *594:25 *738:61 0
29 *594:25 *775:14 0
30 *594:62 *738:61 0
31 *594:62 *738:70 0
32 *594:77 *738:70 5.98676e-05
33 *1157:DIODE *9702:CLK 0.000123288
34 *9648:D *9648:CLK 7.56856e-05
35 *9694:D *9694:CLK 8.66299e-05
36 *9702:D *9702:CLK 0
37 *9770:A *9694:CLK 0.000129595
38 *9774:A *9646:CLK 9.34004e-05
39 *9774:A *594:27 4.46186e-06
40 *9776:A *9645:CLK 0.000230475
41 *9776:A *594:25 0
42 *9776:A *594:27 0
43 *166:18 *9702:CLK 0.000126639
44 *537:93 *594:8 9.90431e-05
45 *539:246 *9694:CLK 5.33334e-05
46 *539:246 *9702:CLK 0
47 *539:246 *594:77 0
48 *566:76 *594:8 5.33433e-05
*RES
1 *9733:X *594:8 14.7464 
2 *594:8 *594:10 3.00893 
3 *594:10 *9648:CLK 19.5589 
4 *594:10 *594:25 3.00893 
5 *594:25 *594:27 1.94643 
6 *594:27 *9646:CLK 17.8179 
7 *594:27 *9647:CLK 15.9786 
8 *594:25 *9645:CLK 18.8893 
9 *594:8 *594:62 2.55357 
10 *594:62 *9694:CLK 17.6214 
11 *594:62 *594:77 3.32143 
12 *594:77 *9641:CLK 13.8 
13 *594:77 *9702:CLK 20.9607 
*END

*D_NET *595 0.00866716
*CONN
*I *9700:CLK I *D sky130_fd_sc_hd__dfrtp_4
*I *9654:CLK I *D sky130_fd_sc_hd__dfrtp_1
*I *9628:CLK I *D sky130_fd_sc_hd__dfrtp_1
*I *9634:CLK I *D sky130_fd_sc_hd__dfrtp_1
*I *9629:CLK I *D sky130_fd_sc_hd__dfrtp_1
*I *9631:CLK I *D sky130_fd_sc_hd__dfrtp_1
*I *9632:CLK I *D sky130_fd_sc_hd__dfrtp_1
*I *9734:X O *D sky130_fd_sc_hd__clkbuf_16
*CAP
1 *9700:CLK 0.000503915
2 *9654:CLK 2.88412e-05
3 *9628:CLK 0.000349502
4 *9634:CLK 0
5 *9629:CLK 0
6 *9631:CLK 0.00045755
7 *9632:CLK 0.000297433
8 *9734:X 0
9 *595:62 0.000473378
10 *595:60 0.000967657
11 *595:31 0.00101273
12 *595:29 0.000612492
13 *595:10 0.000937986
14 *595:4 0.000951947
15 *9628:CLK *9114:A 0
16 *9628:CLK *9144:A 0
17 *9631:CLK *9631:RESET_B 0
18 *9631:CLK *741:72 0
19 *9632:CLK *9141:A 0
20 *9632:CLK *9442:A0 0.000132164
21 *9632:CLK *741:62 0
22 *9654:CLK *9700:RESET_B 0.000142856
23 *595:10 *741:62 0.000447622
24 *595:29 *9141:A 6.28363e-05
25 *595:31 *9141:A 0.000132879
26 *595:31 *741:72 0.000117553
27 *595:60 *9558:A1 0
28 *595:60 *9700:RESET_B 2.58997e-05
29 *595:62 *9114:A 0
30 *595:62 *9700:RESET_B 4.84486e-05
31 *9146:A2 *9628:CLK 0
32 *9151:B1 *9628:CLK 5.33433e-05
33 *9154:B1 *9628:CLK 0
34 *9453:A *595:10 0.00024603
35 *9480:B1 *9700:CLK 0
36 *9628:D *9628:CLK 0
37 *9629:D *595:31 0.000148142
38 *9632:D *9632:CLK 0
39 *9634:D *595:10 0.000177409
40 *9634:D *595:29 8.86129e-06
41 *9700:D *9700:CLK 5.41609e-05
42 *306:10 *9628:CLK 0
43 *322:77 *9628:CLK 0
44 *322:77 *9654:CLK 5.41609e-05
45 *369:82 *9632:CLK 0
46 *369:82 *595:10 0
47 *369:201 *595:10 5.04705e-05
48 *369:201 *595:60 0.000170898
49 *584:197 *595:60 0
*RES
1 *9734:X *595:4 9.3 
2 *595:4 *595:10 16.4286 
3 *595:10 *9632:CLK 18.7821 
4 *595:10 *595:29 5.85714 
5 *595:29 *595:31 10.3929 
6 *595:31 *9631:CLK 26.2464 
7 *595:31 *9629:CLK 9.3 
8 *595:29 *9634:CLK 9.3 
9 *595:4 *595:60 11.5893 
10 *595:60 *595:62 1.64286 
11 *595:62 *9628:CLK 19.7286 
12 *595:62 *9654:CLK 15.1571 
13 *595:60 *9700:CLK 19.9964 
*END

*D_NET *596 0.00961921
*CONN
*I *9675:CLK I *D sky130_fd_sc_hd__dfrtp_1
*I *9676:CLK I *D sky130_fd_sc_hd__dfrtp_1
*I *9677:CLK I *D sky130_fd_sc_hd__dfrtp_1
*I *9678:CLK I *D sky130_fd_sc_hd__dfrtp_1
*I *9715:CLK I *D sky130_fd_sc_hd__dfrtp_1
*I *9639:CLK I *D sky130_fd_sc_hd__dfrtp_1
*I *9674:CLK I *D sky130_fd_sc_hd__dfrtp_2
*I *9735:X O *D sky130_fd_sc_hd__clkbuf_16
*CAP
1 *9675:CLK 4.8814e-05
2 *9676:CLK 0.000197467
3 *9677:CLK 0
4 *9678:CLK 0.00055567
5 *9715:CLK 0.000241351
6 *9639:CLK 3.82418e-05
7 *9674:CLK 0
8 *9735:X 0.000277227
9 *596:64 0.000315268
10 *596:47 0.000673471
11 *596:45 0.000292913
12 *596:21 0.00176887
13 *596:12 0.00154346
14 *596:8 0.000575509
15 *9675:CLK *9316:B 0.00014183
16 *9675:CLK *9316:C 0.00014183
17 *9676:CLK *9513:A1 7.71417e-05
18 *9676:CLK *786:40 0
19 *9678:CLK *9316:A 0.000104974
20 *9678:CLK *9317:A 0.000137983
21 *9678:CLK *9513:A1 1.17968e-05
22 *9678:CLK *9678:RESET_B 1.04232e-05
23 *596:8 *9218:B2 3.28534e-05
24 *596:8 *9233:A1 0.000262941
25 *596:8 *9233:B2 7.2754e-05
26 *596:8 *9239:A1 0.00015234
27 *596:8 *863:54 7.36311e-05
28 *596:21 *9639:RESET_B 1.03968e-05
29 *596:21 *9674:RESET_B 0.000158833
30 *596:21 *784:10 4.46916e-05
31 *596:21 *784:29 2.69359e-05
32 *596:45 *9233:B2 2.14474e-05
33 *596:45 *9677:D 1.92789e-05
34 *596:45 *863:54 0.00017315
35 *596:64 *9513:A1 9.65075e-05
36 *9507:A3 *9676:CLK 0
37 *9510:A *9676:CLK 0.000129868
38 *9513:A2 *9678:CLK 0.000153273
39 *9513:A2 *596:21 0
40 *9639:D *596:21 0.000193631
41 *9674:D *596:8 0.00012401
42 *9674:D *596:12 0.000137983
43 *9674:D *596:21 4.16984e-05
44 *9676:D *9676:CLK 4.57445e-05
45 *9826:A *596:12 2.89016e-05
46 *9826:A *596:45 0.000125731
47 *337:306 *596:8 6.82922e-05
48 *369:104 *596:21 5.12966e-05
49 *438:10 *9678:CLK 4.57445e-05
50 *438:10 *596:64 3.20153e-05
51 *438:34 *9676:CLK 1.41706e-05
52 *438:34 *596:64 3.75052e-05
53 *439:6 *9678:CLK 8.9338e-05
*RES
1 *9735:X *596:8 20.6036 
2 *596:8 *596:12 5.85714 
3 *596:12 *9674:CLK 9.3 
4 *596:12 *596:21 18.9286 
5 *596:21 *9639:CLK 10.0321 
6 *596:21 *9715:CLK 22.3714 
7 *596:8 *596:45 9.75 
8 *596:45 *596:47 4.5 
9 *596:47 *9678:CLK 23.8179 
10 *596:47 *596:64 2.55357 
11 *596:64 *9677:CLK 13.8 
12 *596:64 *9676:CLK 18.7821 
13 *596:45 *9675:CLK 11.0679 
*END

*D_NET *597 0.0128669
*CONN
*I *9685:CLK I *D sky130_fd_sc_hd__dfrtp_4
*I *9672:CLK I *D sky130_fd_sc_hd__dfrtp_4
*I *9717:CLK I *D sky130_fd_sc_hd__dfrtp_1
*I *9637:CLK I *D sky130_fd_sc_hd__dfrtp_1
*I *9635:CLK I *D sky130_fd_sc_hd__dfrtp_1
*I *9710:CLK I *D sky130_fd_sc_hd__dfrtp_4
*I *9655:CLK I *D sky130_fd_sc_hd__dfrtp_1
*I *9712:CLK I *D sky130_fd_sc_hd__dfrtp_1
*I *9701:CLK I *D sky130_fd_sc_hd__dfrtp_1
*I *9736:X O *D sky130_fd_sc_hd__clkbuf_16
*CAP
1 *9685:CLK 0.000251354
2 *9672:CLK 5.19267e-05
3 *9717:CLK 0
4 *9637:CLK 0
5 *9635:CLK 0.000795371
6 *9710:CLK 0.000397138
7 *9655:CLK 0
8 *9712:CLK 0
9 *9701:CLK 0.000379065
10 *9736:X 0
11 *597:80 0.0012648
12 *597:68 0.000677137
13 *597:66 0.000559696
14 *597:56 0.000670166
15 *597:20 0.000560855
16 *597:12 0.000248632
17 *597:8 0.000768676
18 *597:4 0.000423452
19 *9635:CLK *9153:B 2.13481e-06
20 *9635:CLK *9245:A1 1.39841e-05
21 *9635:CLK *610:14 0.000160291
22 *9635:CLK *743:96 0
23 *9672:CLK *796:82 0.000274294
24 *9701:CLK *9221:A1 8.69528e-05
25 *9701:CLK *9560:A0 0.00012501
26 *9701:CLK *756:10 0
27 *9710:CLK *740:101 0.000183355
28 *597:12 *740:101 0.000195302
29 *597:20 *9482:B2 2.31791e-05
30 *597:20 *9560:A0 0.000171391
31 *597:20 *796:42 1.98839e-05
32 *597:20 *830:16 0.000275877
33 *597:66 *794:18 0
34 *597:66 *796:82 7.6644e-05
35 *597:68 *9245:B2 0
36 *597:68 *9318:C 0
37 *597:68 *9580:A1 8.15843e-05
38 *597:68 *794:18 0
39 *597:80 *9245:A1 0.000271345
40 *597:80 *9245:B2 0
41 *597:80 *9580:A1 6.34329e-05
42 *597:80 *9717:D 7.47793e-05
43 *597:80 *740:67 0.000187169
44 *597:80 *743:96 8.02668e-05
45 *1045:DIODE *597:68 0.000126439
46 *1105:DIODE *597:66 2.79092e-05
47 *9320:A *9710:CLK 6.28356e-05
48 *9482:B1 *597:8 0.000183726
49 *9545:A *597:20 8.57023e-05
50 *9561:A *9701:CLK 0.000170955
51 *9580:A2 *597:68 6.44449e-05
52 *9580:A2 *597:80 3.92757e-05
53 *9635:D *9635:CLK 4.884e-05
54 *9637:D *597:80 7.77751e-05
55 *9672:D *9672:CLK 7.77751e-05
56 *9701:D *9701:CLK 5.23142e-05
57 *9710:D *9710:CLK 2.89114e-05
58 *9737:A *9685:CLK 0.000122985
59 *9737:A *597:66 8.61678e-05
60 *100:6 *9672:CLK 7.48091e-05
61 *238:8 *9710:CLK 0.000179854
62 *238:8 *597:12 4.23086e-05
63 *243:8 *9635:CLK 2.56694e-05
64 *276:40 *597:80 8.22793e-06
65 *277:8 *9635:CLK 0
66 *372:18 *9685:CLK 0.000146523
67 *441:10 *597:20 0.000136958
68 *442:328 *597:66 0.000191251
69 *538:74 *9710:CLK 0.000329704
70 *540:349 *9685:CLK 0.000148911
71 *540:349 *597:66 4.97121e-06
72 *541:14 *9685:CLK 3.69047e-06
73 *566:12 *9701:CLK 0.000192773
74 *566:12 *597:20 0.000183818
75 *584:138 *9685:CLK 5.30637e-06
76 *584:140 *9685:CLK 1.92905e-05
77 *584:142 *9685:CLK 2.60984e-05
78 *584:142 *597:8 0.000226592
79 *584:142 *597:56 8.00431e-05
80 *584:160 *597:8 1.58163e-05
81 *584:160 *597:12 0.000153047
*RES
1 *9736:X *597:4 9.3 
2 *597:4 *597:8 10.7857 
3 *597:8 *597:12 7.35714 
4 *597:12 *597:20 10.4821 
5 *597:20 *9701:CLK 22.7107 
6 *597:20 *9712:CLK 13.8 
7 *597:12 *9655:CLK 9.3 
8 *597:8 *9710:CLK 24.3536 
9 *597:4 *597:56 2.17857 
10 *597:56 *597:66 11.2857 
11 *597:66 *597:68 4.98214 
12 *597:68 *597:80 14.9821 
13 *597:80 *9635:CLK 29.9429 
14 *597:80 *9637:CLK 9.3 
15 *597:68 *9717:CLK 13.8 
16 *597:66 *9672:CLK 16.3893 
17 *597:56 *9685:CLK 24.1929 
*END

*D_NET *598 0.0148103
*CONN
*I *9684:CLK I *D sky130_fd_sc_hd__dfrtp_4
*I *9663:CLK I *D sky130_fd_sc_hd__dfrtp_1
*I *9693:CLK I *D sky130_fd_sc_hd__dfrtp_2
*I *9692:CLK I *D sky130_fd_sc_hd__dfrtp_1
*I *9662:CLK I *D sky130_fd_sc_hd__dfrtp_1
*I *9661:CLK I *D sky130_fd_sc_hd__dfrtp_1
*I *9683:CLK I *D sky130_fd_sc_hd__dfrtp_4
*I *9669:CLK I *D sky130_fd_sc_hd__dfrtp_1
*I *9670:CLK I *D sky130_fd_sc_hd__dfrtp_1
*I *9691:CLK I *D sky130_fd_sc_hd__dfrtp_2
*I *9671:CLK I *D sky130_fd_sc_hd__dfrtp_1
*I *9673:CLK I *D sky130_fd_sc_hd__dfrtp_1
*I *9737:X O *D sky130_fd_sc_hd__clkbuf_16
*CAP
1 *9684:CLK 0
2 *9663:CLK 5.43786e-05
3 *9693:CLK 8.75232e-05
4 *9692:CLK 0.000175848
5 *9662:CLK 0
6 *9661:CLK 6.34646e-05
7 *9683:CLK 0.00053392
8 *9669:CLK 0
9 *9670:CLK 0.000212359
10 *9691:CLK 0.000574095
11 *9671:CLK 3.39029e-05
12 *9673:CLK 0.000112528
13 *9737:X 0.000426463
14 *598:129 0.000258757
15 *598:112 0.000602544
16 *598:105 0.000698618
17 *598:86 0.000704924
18 *598:82 0.000394654
19 *598:62 0.00053392
20 *598:60 0.000185083
21 *598:18 0.000330568
22 *598:16 0.00180042
23 *598:12 0.00125455
24 *598:10 0.000469573
25 *9661:CLK *9661:RESET_B 0
26 *9661:CLK *9780:A 5.52238e-05
27 *9663:CLK *9662:RESET_B 1.98839e-05
28 *9663:CLK *9663:RESET_B 7.32272e-05
29 *9663:CLK *838:10 9.76689e-05
30 *9670:CLK *9074:A 4.87854e-05
31 *9670:CLK *9498:A1 0.000118256
32 *9670:CLK *794:82 2.28598e-05
33 *9673:CLK *9508:B 0
34 *9673:CLK *783:55 5.71472e-05
35 *9683:CLK *9074:A 7.89576e-05
36 *9683:CLK *9669:RESET_B 9.84792e-05
37 *9683:CLK *740:161 4.10403e-05
38 *9692:CLK *757:18 0
39 *9693:CLK *9490:B2 1.97695e-05
40 *9693:CLK *740:187 0.000125724
41 *598:10 *9756:A 0.000125724
42 *598:10 *740:115 0
43 *598:10 *740:131 0.00022287
44 *598:10 *743:110 0.000757326
45 *598:16 *9498:A1 1.13406e-05
46 *598:16 *9671:D 1.48591e-05
47 *598:60 *740:131 0.000116474
48 *598:60 *743:110 0.000125724
49 *598:82 *9771:A 2.59355e-05
50 *598:82 *740:131 0.000211913
51 *598:82 *743:110 0.000218019
52 *598:86 *9539:A0 0
53 *598:86 *9661:RESET_B 0
54 *598:86 *9771:A 5.66157e-05
55 *598:86 *743:110 0
56 *598:86 *757:18 0.000502205
57 *598:105 *9539:A0 0
58 *598:105 *9661:D 6.04162e-05
59 *598:105 *757:18 0.000389847
60 *598:129 *9662:RESET_B 6.94994e-05
61 *598:129 *838:10 6.05161e-06
62 *9075:B *598:10 0
63 *9237:A *9673:CLK 0.000176234
64 *9237:A *598:18 5.66157e-05
65 *9482:B1 *598:10 3.93893e-05
66 *9483:A *598:10 5.33433e-05
67 *9490:B1 *9693:CLK 1.14749e-05
68 *9524:A *9683:CLK 8.07313e-05
69 *9526:A *598:82 0.000139907
70 *9526:A *598:86 3.57844e-05
71 *9542:A *9693:CLK 2.49484e-05
72 *9579:A *598:18 0
73 *9662:D *598:105 3.69697e-05
74 *9670:D *9670:CLK 5.33005e-05
75 *9683:D *9683:CLK 5.71472e-05
76 *9684:D *598:82 0.000175288
77 *9692:D *9692:CLK 0
78 *9692:D *9693:CLK 0.00017309
79 *9710:D *598:16 4.05411e-05
80 *9772:A *598:16 0.000122101
81 *348:99 *9671:CLK 6.05161e-06
82 *348:106 *9671:CLK 1.98839e-05
83 *540:10 *598:10 6.41079e-05
84 *541:41 *9683:CLK 0.00016344
*RES
1 *9737:X *598:10 24.5857 
2 *598:10 *598:12 4.5 
3 *598:12 *598:16 16.9464 
4 *598:16 *598:18 3.46429 
5 *598:18 *9673:CLK 16.5857 
6 *598:18 *9671:CLK 14.3357 
7 *598:16 *9691:CLK 23.7107 
8 *598:12 *9670:CLK 13.8536 
9 *598:10 *598:60 1.64286 
10 *598:60 *598:62 4.5 
11 *598:62 *9669:CLK 9.3 
12 *598:62 *9683:CLK 20.1214 
13 *598:60 *598:82 9.53571 
14 *598:82 *598:86 11 
15 *598:86 *9661:CLK 15.0679 
16 *598:86 *598:105 12.6964 
17 *598:105 *9662:CLK 9.3 
18 *598:105 *598:112 5.875 
19 *598:112 *9692:CLK 21.2107 
20 *598:112 *598:129 2.17857 
21 *598:129 *9693:CLK 21.2821 
22 *598:129 *9663:CLK 11.0679 
23 *598:82 *9684:CLK 9.3 
*END

*D_NET *599 0.0124045
*CONN
*I *9587:CLK I *D sky130_fd_sc_hd__dfrtp_4
*I *9623:CLK I *D sky130_fd_sc_hd__dfrtp_1
*I *9624:CLK I *D sky130_fd_sc_hd__dfrtp_1
*I *9626:CLK I *D sky130_fd_sc_hd__dfrtp_2
*I *9585:CLK I *D sky130_fd_sc_hd__dfrtp_4
*I *9588:CLK I *D sky130_fd_sc_hd__dfrtp_1
*I *9589:CLK I *D sky130_fd_sc_hd__dfrtp_1
*I *9591:CLK I *D sky130_fd_sc_hd__dfrtp_1
*I *9592:CLK I *D sky130_fd_sc_hd__dfrtp_1
*I *9586:CLK I *D sky130_fd_sc_hd__dfrtp_1
*I *9627:CLK I *D sky130_fd_sc_hd__dfrtp_1
*I *9590:CLK I *D sky130_fd_sc_hd__dfrtp_1
*I *9738:X O *D sky130_fd_sc_hd__clkbuf_16
*CAP
1 *9587:CLK 0
2 *9623:CLK 0.000127252
3 *9624:CLK 6.60616e-05
4 *9626:CLK 0.000130344
5 *9585:CLK 0
6 *9588:CLK 0
7 *9589:CLK 1.91209e-05
8 *9591:CLK 0.000104711
9 *9592:CLK 0
10 *9586:CLK 0
11 *9627:CLK 0.00016845
12 *9590:CLK 4.68056e-05
13 *9738:X 0.000276103
14 *599:67 0.000570702
15 *599:55 0.000846693
16 *599:51 0.000819753
17 *599:45 0.000783732
18 *599:30 0.00101764
19 *599:24 0.000577009
20 *599:22 0.000250009
21 *599:14 0.000602181
22 *599:12 0.000467956
23 *599:10 0.000280649
24 *599:8 0.000349614
25 *9590:CLK *9172:B 7.83587e-05
26 *9590:CLK *781:8 8.25098e-05
27 *9591:CLK *1180:DIODE 3.34295e-05
28 *9591:CLK *744:27 9.91086e-05
29 *9591:CLK *744:46 5.52302e-05
30 *9623:CLK *751:67 0
31 *9624:CLK *867:18 1.3701e-05
32 *9624:CLK *899:28 2.59355e-05
33 *9626:CLK *1174:DIODE 2.14658e-05
34 *9626:CLK *742:83 0.000358965
35 *9627:CLK *732:44 2.22043e-05
36 *599:8 *731:83 0
37 *599:8 *742:61 4.46772e-05
38 *599:8 *742:67 1.90062e-05
39 *599:8 *742:83 0.000113038
40 *599:10 *731:83 0
41 *599:10 *742:83 0.000139653
42 *599:12 *742:83 0.000189455
43 *599:14 *731:83 0
44 *599:14 *742:83 0.00064474
45 *599:14 *899:28 1.69115e-05
46 *599:22 *9585:RESET_B 1.74352e-05
47 *599:22 *742:83 3.17148e-05
48 *599:22 *744:149 3.92757e-05
49 *599:22 *744:167 1.08359e-05
50 *599:24 *9585:RESET_B 8.18783e-05
51 *599:30 *1175:DIODE 0.000149904
52 *599:30 *9172:B 0.000193592
53 *599:30 *9337:A 0
54 *599:30 *9585:RESET_B 3.67257e-05
55 *599:30 *9588:RESET_B 1.21258e-05
56 *599:30 *744:82 0
57 *599:30 *744:103 0.000115467
58 *599:30 *744:149 0
59 *599:30 *751:24 0.000177871
60 *599:45 *9172:A 1.1152e-05
61 *599:51 *9172:A 9.99644e-06
62 *599:51 *9347:B1 1.40415e-05
63 *599:55 *1181:DIODE 1.11474e-05
64 *599:67 *1181:DIODE 1.58163e-05
65 *599:67 *9586:D 0.000279638
66 *599:67 *9817:A 0
67 *9172:C *9590:CLK 0.000150618
68 *9172:C *599:30 0.000226021
69 *9174:A *599:67 0.000253965
70 *9339:A *599:30 9.65075e-05
71 *9437:A *9626:CLK 5.71472e-05
72 *9588:D *599:30 6.05161e-06
73 *9589:D *599:45 9.58593e-05
74 *9592:D *599:51 3.67257e-05
75 *9592:D *599:55 0.000142844
76 *9623:D *9623:CLK 6.86693e-05
77 *9624:D *599:10 3.92757e-05
78 *9624:D *599:12 0.000105591
79 *9624:D *599:14 3.17163e-05
80 *9626:D *9626:CLK 3.18676e-05
81 *368:10 *9627:CLK 0
82 *377:16 *599:67 0.000389861
83 *518:48 *9623:CLK 0
*RES
1 *9738:X *599:8 18.175 
2 *599:8 *599:10 1.94643 
3 *599:10 *599:12 2.55357 
4 *599:12 *599:14 8.32143 
5 *599:14 *599:22 7.41071 
6 *599:22 *599:24 2.17857 
7 *599:24 *599:30 16.6071 
8 *599:30 *9590:CLK 15.7464 
9 *599:30 *599:45 10.3929 
10 *599:45 *599:51 3.96429 
11 *599:51 *599:55 5.78571 
12 *599:55 *599:67 20.8214 
13 *599:67 *9627:CLK 21.2107 
14 *599:67 *9586:CLK 9.3 
15 *599:55 *9592:CLK 9.3 
16 *599:51 *9591:CLK 20.4786 
17 *599:45 *9589:CLK 9.72857 
18 *599:24 *9588:CLK 9.3 
19 *599:22 *9585:CLK 9.3 
20 *599:14 *9626:CLK 17.6214 
21 *599:12 *9624:CLK 15.0679 
22 *599:10 *9623:CLK 16.0143 
23 *599:8 *9587:CLK 13.8 
*END

*D_NET *600 0.0115268
*CONN
*I *9593:CLK I *D sky130_fd_sc_hd__dfrtp_1
*I *9596:CLK I *D sky130_fd_sc_hd__dfrtp_2
*I *9594:CLK I *D sky130_fd_sc_hd__dfrtp_1
*I *9625:CLK I *D sky130_fd_sc_hd__dfstp_1
*I *9636:CLK I *D sky130_fd_sc_hd__dfrtp_1
*I *9638:CLK I *D sky130_fd_sc_hd__dfrtp_1
*I *9595:CLK I *D sky130_fd_sc_hd__dfrtp_1
*I *9622:CLK I *D sky130_fd_sc_hd__dfrtp_1
*I *9739:X O *D sky130_fd_sc_hd__clkbuf_16
*CAP
1 *9593:CLK 0.000132697
2 *9596:CLK 0
3 *9594:CLK 0
4 *9625:CLK 0.000393849
5 *9636:CLK 0
6 *9638:CLK 0.000486337
7 *9595:CLK 3.3963e-05
8 *9622:CLK 0.000158745
9 *9739:X 0.000253136
10 *600:92 0.000639872
11 *600:48 0.00060408
12 *600:46 0.000858713
13 *600:44 0.000627182
14 *600:29 0.000983576
15 *600:25 0.00125807
16 *600:8 0.000493222
17 *9593:CLK *730:82 4.5435e-05
18 *9593:CLK *735:21 0
19 *9622:CLK *696:16 5.33433e-05
20 *9622:CLK *730:82 0.000101198
21 *9622:CLK *751:71 0.00019712
22 *9625:CLK *9181:B2 2.84494e-05
23 *9625:CLK *9638:RESET_B 2.47697e-05
24 *9625:CLK *721:14 9.59532e-06
25 *9625:CLK *732:48 4.25523e-05
26 *9625:CLK *792:49 0
27 *9638:CLK *9242:A1 0.000113573
28 *9638:CLK *792:49 0.000555137
29 *600:25 *730:82 9.11631e-05
30 *600:25 *751:71 7.83659e-05
31 *600:25 *751:82 0.000114861
32 *600:29 *9594:RESET_B 9.58593e-05
33 *600:29 *744:205 2.23774e-05
34 *600:29 *744:223 8.81471e-06
35 *600:29 *757:74 0.000137983
36 *600:29 *872:8 3.06878e-06
37 *600:44 *744:240 1.39726e-05
38 *600:44 *870:29 7.12511e-05
39 *600:44 *871:10 6.84658e-05
40 *600:46 *744:240 2.27416e-05
41 *600:46 *744:242 0.00022786
42 *600:48 *9636:RESET_B 7.32272e-05
43 *600:48 *744:251 5.03772e-05
44 *600:92 *9309:A1_N 0
45 *600:92 *730:82 0.000469144
46 *600:92 *735:21 0
47 *600:92 *742:46 1.08359e-05
48 *600:92 *751:82 7.55769e-05
49 *600:92 *751:97 0.000189659
50 *600:92 *757:56 0
51 *9203:A2 *9625:CLK 0.00010096
52 *9204:A2 *9625:CLK 6.07232e-05
53 *9275:A *9595:CLK 1.73088e-05
54 *9362:A2 *9593:CLK 5.52238e-05
55 *9362:B1 *9593:CLK 1.92789e-05
56 *9594:D *600:44 0.000146376
57 *9595:D *600:29 0.000137983
58 *9596:D *9593:CLK 7.83587e-05
59 *9622:D *9622:CLK 3.57366e-05
60 *9638:D *9638:CLK 3.08664e-05
61 *347:103 *600:8 0.000350124
62 *348:179 *9625:CLK 0.000403911
63 *348:194 *9625:CLK 2.74584e-05
64 *348:322 *9625:CLK 9.71197e-05
65 *404:63 *600:44 0
66 *461:14 *600:29 4.51495e-05
*RES
1 *9739:X *600:8 17.2107 
2 *600:8 *9622:CLK 18.1571 
3 *600:8 *600:25 2.55357 
4 *600:25 *600:29 12.8393 
5 *600:29 *9595:CLK 10.0321 
6 *600:29 *600:44 14.7679 
7 *600:44 *600:46 6.69643 
8 *600:46 *600:48 2.17857 
9 *600:48 *9638:CLK 28.8179 
10 *600:48 *9636:CLK 9.3 
11 *600:46 *9625:CLK 36.9964 
12 *600:44 *9594:CLK 9.3 
13 *600:25 *600:92 11.6607 
14 *600:92 *9596:CLK 13.8 
15 *600:92 *9593:CLK 16.5857 
*END

*D_NET *601 0.00796687
*CONN
*I *9168:D1 I *D sky130_fd_sc_hd__o2111a_1
*I *9186:A1 I *D sky130_fd_sc_hd__a32o_1
*I *9436:A0 I *D sky130_fd_sc_hd__mux2_1
*I *9828:A I *D sky130_fd_sc_hd__dlygate4sd3_1
*I *9338:A I *D sky130_fd_sc_hd__and3_1
*I *9341:B I *D sky130_fd_sc_hd__and3b_1
*I *9626:Q O *D sky130_fd_sc_hd__dfrtp_2
*CAP
1 *9168:D1 0.000180016
2 *9186:A1 0.000701281
3 *9436:A0 4.36033e-05
4 *9828:A 0
5 *9338:A 6.81772e-05
6 *9341:B 0.000105618
7 *9626:Q 0.000163359
8 *601:66 0.00137057
9 *601:49 0.00058492
10 *601:22 0.000370041
11 *601:14 0.000392138
12 *601:8 0.0004113
13 *9168:D1 *9162:A 0
14 *9168:D1 *9167:A1 0.000180309
15 *9168:D1 *9168:A1 5.7661e-06
16 *9168:D1 *9168:C1 2.44318e-05
17 *9168:D1 *873:28 2.28598e-05
18 *9186:A1 *923:DIODE 5.52238e-05
19 *9186:A1 *9186:B1 6.42338e-05
20 *9186:A1 *873:28 2.40238e-05
21 *9341:B *719:14 0.000190682
22 *601:8 *9438:A1 5.33334e-05
23 *601:8 *742:83 6.03192e-05
24 *601:14 *1067:DIODE 0.000126573
25 *601:14 *709:14 0.000440363
26 *601:14 *732:44 0.000181796
27 *601:14 *749:52 0.00018372
28 *601:14 *864:10 0
29 *601:22 *709:14 2.46999e-05
30 *601:22 *719:14 0.000266099
31 *601:49 *709:14 7.6644e-05
32 *601:66 *616:34 0
33 *601:66 *709:14 8.41494e-05
34 *601:66 *709:27 3.25078e-05
35 *601:66 *719:14 0
36 *935:DIODE *9186:A1 4.37999e-05
37 *1046:DIODE *601:14 0
38 *1046:DIODE *601:49 0
39 *9168:B1 *9168:D1 5.33005e-05
40 *9186:A2 *9186:A1 1.02504e-05
41 *9187:C1 *601:66 0.000101545
42 *9200:B1 *601:66 8.91726e-05
43 *9323:B *9436:A0 5.33005e-05
44 *9325:B1 *601:22 5.33978e-05
45 *9338:B *9338:A 4.09678e-05
46 *9338:B *601:22 5.54353e-05
47 *9348:C *601:22 5.7616e-05
48 *9349:B1 *9341:B 7.6644e-05
49 *9427:A *9168:D1 1.04232e-05
50 *9427:A *9186:A1 5.33005e-05
51 *9434:S *9186:A1 8.25843e-06
52 *342:16 *601:66 0
53 *342:31 *601:66 0.000403323
54 *348:343 *9168:D1 9.60875e-05
55 *348:343 *601:66 3.98428e-05
56 *377:16 *9186:A1 0
57 *404:71 *9186:A1 0.00018372
58 *404:79 *601:66 0
59 *445:23 *601:22 2.26327e-05
60 *455:10 *9341:B 1.76039e-05
61 *518:31 *9186:A1 7.49387e-06
*RES
1 *9626:Q *601:8 15.9786 
2 *601:8 *601:14 11.8571 
3 *601:14 *601:22 13.4107 
4 *601:22 *9341:B 20.8536 
5 *601:22 *9338:A 10.675 
6 *601:14 *9828:A 9.3 
7 *601:8 *601:49 1.03571 
8 *601:49 *9436:A0 14.3357 
9 *601:49 *601:66 15.3036 
10 *601:66 *9186:A1 29.9429 
11 *601:66 *9168:D1 14.1214 
*END

*D_NET *602 0.00246674
*CONN
*I *9194:A I *D sky130_fd_sc_hd__and3_1
*I *9438:A0 I *D sky130_fd_sc_hd__mux2_1
*I *9173:S I *D sky130_fd_sc_hd__mux2_1
*I *9627:Q O *D sky130_fd_sc_hd__dfrtp_1
*CAP
1 *9194:A 0.000295438
2 *9438:A0 3.72704e-05
3 *9173:S 0.000178219
4 *9627:Q 7.48623e-05
5 *602:21 0.00061535
6 *602:8 0.000535722
7 *9173:S *9586:D 3.69697e-05
8 *9173:S *9627:RESET_B 2.28485e-05
9 *9173:S *9817:A 0.00027032
10 *9173:S *749:12 4.35048e-05
11 *9194:A *616:34 9.60337e-06
12 *9194:A *709:45 0
13 *9194:A *720:26 0
14 *602:8 *732:44 5.03772e-05
15 *602:21 *9586:D 9.88232e-05
16 *602:21 *749:12 1.97381e-05
17 *602:21 *864:10 0
18 *1046:DIODE *602:21 0
19 *9322:A *9194:A 8.5896e-05
20 *9438:S *9194:A 0
21 *9438:S *602:21 0
22 *9439:A *602:21 2.79092e-05
23 *334:25 *9194:A 3.04495e-05
24 *335:86 *9194:A 3.34366e-05
25 *377:16 *9194:A 0
26 *377:16 *602:21 0
27 *404:79 *9194:A 0
*RES
1 *9627:Q *602:8 14.7464 
2 *602:8 *9173:S 18.0321 
3 *602:8 *602:21 5.89286 
4 *602:21 *9438:A0 14.3357 
5 *602:21 *9194:A 19.0857 
*END

*D_NET *603 0.00610396
*CONN
*I *9221:A1 I *D sky130_fd_sc_hd__a22o_1
*I *9440:A1 I *D sky130_fd_sc_hd__mux2_1
*I *9151:A2 I *D sky130_fd_sc_hd__a211o_1
*I *9138:A I *D sky130_fd_sc_hd__inv_2
*I *9628:Q O *D sky130_fd_sc_hd__dfrtp_1
*CAP
1 *9221:A1 0.00133301
2 *9440:A1 0
3 *9151:A2 9.92242e-05
4 *9138:A 0.000135438
5 *9628:Q 0
6 *603:27 9.92242e-05
7 *603:10 0.000258181
8 *603:4 0.00145575
9 *9138:A *608:16 5.33005e-05
10 *9138:A *785:33 0.000165306
11 *9151:A2 *820:65 0.000396886
12 *9221:A1 *9236:A1 0
13 *9221:A1 *9465:A 0.000145406
14 *9221:A1 *9482:A1 7.48828e-05
15 *9221:A1 *9482:B2 4.75428e-05
16 *9221:A1 *756:10 0
17 *9221:A1 *796:20 0
18 *9221:A1 *796:42 9.91086e-05
19 *603:10 *785:33 0.00024095
20 *9151:C1 *9151:A2 4.88637e-05
21 *9152:C1 *9151:A2 0.00030926
22 *9221:A2 *9221:A1 6.76178e-05
23 *9237:B *9221:A1 0
24 *9482:A2 *9221:A1 0.000150625
25 *9561:A *9221:A1 7.83659e-05
26 *9701:CLK *9221:A1 8.69528e-05
27 *312:22 *9221:A1 6.63569e-05
28 *322:65 *9138:A 5.52238e-05
29 *539:60 *9138:A 0.000127446
30 *539:60 *603:10 0.000132442
31 *566:12 *9221:A1 0.00037659
*RES
1 *9628:Q *603:4 9.3 
2 *603:4 *603:10 8.19643 
3 *603:10 *9138:A 17.55 
4 *603:10 *603:27 4.5 
5 *603:27 *9151:A2 13.55 
6 *603:27 *9440:A1 9.3 
7 *603:4 *9221:A1 42.9607 
*END

*D_NET *604 0.00387437
*CONN
*I *9141:A I *D sky130_fd_sc_hd__inv_2
*I *9224:A1 I *D sky130_fd_sc_hd__a22o_1
*I *9442:A1 I *D sky130_fd_sc_hd__mux2_1
*I *9629:Q O *D sky130_fd_sc_hd__dfrtp_1
*CAP
1 *9141:A 0.000887043
2 *9224:A1 0.000367596
3 *9442:A1 3.40961e-05
4 *9629:Q 0
5 *604:6 0.000401692
6 *604:4 0.000887043
7 *9141:A *9448:A0 7.83366e-05
8 *9141:A *9632:RESET_B 0.000125241
9 *9141:A *863:44 7.85435e-05
10 *9224:A1 *9230:A1 0.000414762
11 *9442:A1 *9230:A1 8.00806e-05
12 *9442:A1 *9270:A 1.02504e-05
13 *9632:CLK *9141:A 0
14 *9634:D *9141:A 4.46231e-06
15 *322:98 *9141:A 5.35423e-05
16 *322:127 *9224:A1 0.000220186
17 *322:127 *9442:A1 3.57844e-05
18 *322:150 *9141:A 0
19 *595:29 *9141:A 6.28363e-05
20 *595:31 *9141:A 0.000132879
*RES
1 *9629:Q *604:4 9.3 
2 *604:4 *604:6 4.5 
3 *604:6 *9442:A1 14.8357 
4 *604:6 *9224:A1 22.0857 
5 *604:4 *9141:A 33.3 
*END

*D_NET *605 0.00235918
*CONN
*I *9227:A1 I *D sky130_fd_sc_hd__a22o_1
*I *9147:A I *D sky130_fd_sc_hd__inv_2
*I *9444:A1 I *D sky130_fd_sc_hd__mux2_1
*I *9630:Q O *D sky130_fd_sc_hd__dfrtp_1
*CAP
1 *9227:A1 0.000165939
2 *9147:A 0.000228339
3 *9444:A1 0
4 *9630:Q 0
5 *605:10 0.00055647
6 *605:4 0.000494071
7 *9147:A *9082:A 6.50357e-05
8 *9147:A *785:33 0.000350936
9 *9147:A *822:14 0.000142856
10 *9227:A1 *9227:B2 1.74352e-05
11 *605:10 *9082:A 4.72071e-05
12 *605:10 *9227:B2 0.000134192
13 *605:10 *785:33 0.00014627
14 *322:45 *9147:A 0
15 *369:280 *9227:A1 1.04232e-05
*RES
1 *9630:Q *605:4 9.3 
2 *605:4 *605:10 9.85714 
3 *605:10 *9444:A1 13.8 
4 *605:10 *9147:A 19.8357 
5 *605:4 *9227:A1 11.4964 
*END

*D_NET *606 0.00515622
*CONN
*I *9446:A1 I *D sky130_fd_sc_hd__mux2_1
*I *9142:A I *D sky130_fd_sc_hd__inv_2
*I *9230:A1 I *D sky130_fd_sc_hd__a22o_1
*I *9631:Q O *D sky130_fd_sc_hd__dfrtp_1
*CAP
1 *9446:A1 0
2 *9142:A 0.000196663
3 *9230:A1 0.000722499
4 *9631:Q 0
5 *606:19 0.000431564
6 *606:4 0.0009574
7 *9230:A1 *1025:DIODE 7.76017e-05
8 *9230:A1 *9230:B2 0.00018372
9 *9230:A1 *9270:A 1.43455e-05
10 *9230:A1 *741:86 0
11 *9230:A1 *895:122 0.00161141
12 *1071:DIODE *9142:A 0.000230482
13 *9224:A1 *9230:A1 0.000414762
14 *9226:A *9230:A1 0
15 *9442:A1 *9230:A1 8.00806e-05
16 *322:127 *9230:A1 7.79781e-06
17 *369:56 *9230:A1 0
18 *369:129 *9230:A1 6.41079e-05
19 *369:138 *9230:A1 0.000140933
20 *381:8 *9230:A1 2.28499e-05
*RES
1 *9631:Q *606:4 9.3 
2 *606:4 *9230:A1 40.8357 
3 *606:4 *606:19 2.58929 
4 *606:19 *9142:A 13.4429 
5 *606:19 *9446:A1 9.3 
*END

*D_NET *607 0.00462181
*CONN
*I *9233:A1 I *D sky130_fd_sc_hd__a22o_1
*I *9143:A I *D sky130_fd_sc_hd__inv_2
*I *9448:A1 I *D sky130_fd_sc_hd__mux2_1
*I *9632:Q O *D sky130_fd_sc_hd__dfrtp_1
*CAP
1 *9233:A1 0.000552432
2 *9143:A 0.000278952
3 *9448:A1 0.000208676
4 *9632:Q 5.07204e-05
5 *607:12 0.000561985
6 *607:8 0.000677509
7 *9143:A *9149:A1 4.87953e-05
8 *9233:A1 *9145:B1 0.000104236
9 *9233:A1 *9233:B2 8.27184e-06
10 *9233:A1 *9239:A1 1.53472e-05
11 *9233:A1 *863:44 0.000528946
12 *9233:A1 *863:54 0.00029823
13 *9448:A1 *9149:A1 0
14 *9448:A1 *9448:A0 5.52238e-05
15 *607:8 *9442:A0 1.58163e-05
16 *607:8 *818:62 3.69047e-06
17 *607:12 *9145:B1 3.32091e-05
18 *607:12 *9149:A1 0.00012401
19 *607:12 *863:44 0.000194577
20 *989:DIODE *9233:A1 0
21 *9145:B2 *9143:A 7.48301e-06
22 *9146:A2 *9143:A 2.98726e-05
23 *9149:A2 *9143:A 1.98839e-05
24 *9149:A2 *9448:A1 0
25 *9233:A2 *9233:A1 3.57366e-05
26 *9448:S *9448:A1 3.57366e-05
27 *307:6 *9143:A 0.000181381
28 *312:22 *9143:A 0.000266955
29 *337:315 *9233:A1 2.1195e-05
30 *344:239 *9233:A1 0
31 *537:28 *9233:A1 0
32 *596:8 *9233:A1 0.000262941
*RES
1 *9632:Q *607:8 14.3357 
2 *607:8 *607:12 7.05357 
3 *607:12 *9448:A1 12.425 
4 *607:12 *9143:A 15.2286 
5 *607:8 *9233:A1 26.7464 
*END

*D_NET *608 0.00616814
*CONN
*I *9236:A1 I *D sky130_fd_sc_hd__a22o_1
*I *9152:B1 I *D sky130_fd_sc_hd__a221o_1
*I *9450:A1 I *D sky130_fd_sc_hd__mux2_1
*I *9155:B1 I *D sky130_fd_sc_hd__o221a_1
*I *9633:Q O *D sky130_fd_sc_hd__dfrtp_1
*CAP
1 *9236:A1 0.000900432
2 *9152:B1 0
3 *9450:A1 0
4 *9155:B1 0.00011826
5 *9633:Q 0.000306722
6 *608:36 0.000972281
7 *608:16 0.000342317
8 *608:12 0.000602629
9 *9155:B1 *9797:A 8.51066e-05
10 *9155:B1 *817:25 6.20855e-06
11 *9155:B1 *821:74 3.57366e-05
12 *608:12 *611:20 1.33343e-05
13 *608:12 *611:34 1.86687e-05
14 *1068:DIODE *9236:A1 3.98018e-05
15 *9138:A *608:16 5.33005e-05
16 *9152:A2 *9236:A1 5.80706e-06
17 *9152:A2 *608:16 0.000178847
18 *9152:A2 *608:36 6.42242e-05
19 *9152:B2 *9155:B1 2.53134e-05
20 *9152:B2 *608:12 4.97121e-06
21 *9152:B2 *608:36 7.2754e-05
22 *9156:A *608:12 0.00033678
23 *9156:D_N *608:12 1.31516e-05
24 *9221:A1 *9236:A1 0
25 *9221:A2 *9236:A1 0
26 *9236:A2 *9236:A1 5.33005e-05
27 *9559:A *9236:A1 5.41794e-05
28 *9561:A *9236:A1 0
29 *9868:A *9236:A1 9.15604e-05
30 *302:10 *9155:B1 3.57366e-05
31 *312:22 *9236:A1 0.000162203
32 *312:22 *608:12 1.41029e-05
33 *312:22 *608:36 4.038e-06
34 *322:45 *608:12 0.000171368
35 *322:63 *608:12 0.000148054
36 *322:63 *608:16 6.57032e-05
37 *322:65 *608:16 8.56752e-05
38 *322:67 *608:16 4.58194e-05
39 *322:195 *9236:A1 1.34792e-05
40 *344:208 *9236:A1 0.000362604
41 *536:12 *9236:A1 6.54045e-05
42 *538:8 *9236:A1 0.000310307
43 *538:12 *9236:A1 5.33005e-05
44 *538:59 *9236:A1 3.17148e-05
45 *539:60 *9155:B1 1.04232e-05
46 *539:60 *9236:A1 0
47 *566:44 *9155:B1 6.98302e-05
48 *566:48 *9155:B1 0.000122689
*RES
1 *9633:Q *608:12 20.7821 
2 *608:12 *608:16 8.73214 
3 *608:16 *9155:B1 21.5857 
4 *608:16 *9450:A1 9.3 
5 *608:12 *608:36 1.94643 
6 *608:36 *9152:B1 13.8 
7 *608:36 *9236:A1 33.9964 
*END

*D_NET *609 0.00513954
*CONN
*I *9452:A1 I *D sky130_fd_sc_hd__mux2_1
*I *9149:B1 I *D sky130_fd_sc_hd__o22ai_1
*I *9145:B1 I *D sky130_fd_sc_hd__a22o_1
*I *9239:A1 I *D sky130_fd_sc_hd__a22o_1
*I *9634:Q O *D sky130_fd_sc_hd__dfrtp_1
*CAP
1 *9452:A1 0.00014557
2 *9149:B1 0.000181759
3 *9145:B1 0.000245179
4 *9239:A1 0.000325152
5 *9634:Q 0
6 *609:36 0.000625578
7 *609:6 0.000610233
8 *609:4 0.000338152
9 *9145:B1 *9149:A1 0.000171375
10 *9145:B1 *821:25 1.02504e-05
11 *9145:B1 *863:44 1.5942e-05
12 *9149:B1 *9144:A 0.000109392
13 *9149:B1 *818:62 0.000108538
14 *9149:B1 *823:8 6.87834e-06
15 *9239:A1 *9634:RESET_B 4.35436e-05
16 *9239:A1 *741:47 4.92467e-06
17 *9239:A1 *741:62 0.000125724
18 *9239:A1 *863:44 0.00035252
19 *9452:A1 *823:36 5.52302e-05
20 *609:6 *9634:RESET_B 1.56e-05
21 *609:36 *9634:RESET_B 8.90468e-05
22 *609:36 *9700:RESET_B 0
23 *609:36 *823:8 3.5707e-05
24 *9145:B2 *9145:B1 0.000146474
25 *9146:A2 *9149:B1 9.8621e-05
26 *9233:A1 *9145:B1 0.000104236
27 *9233:A1 *9239:A1 1.53472e-05
28 *9453:A *9149:B1 1.02504e-05
29 *9453:A *609:36 0.000186756
30 *304:14 *9145:B1 7.83659e-05
31 *307:6 *9149:B1 4.96113e-05
32 *322:90 *9452:A1 1.34703e-05
33 *337:267 *9239:A1 0.000101545
34 *337:273 *9239:A1 0.00020112
35 *337:306 *9239:A1 5.83304e-05
36 *537:28 *9145:B1 0.000273571
37 *537:28 *9149:B1 0
38 *584:197 *609:36 0
39 *596:8 *9239:A1 0.00015234
40 *607:12 *9145:B1 3.32091e-05
*RES
1 *9634:Q *609:4 9.3 
2 *609:4 *609:6 0.535714 
3 *609:6 *9239:A1 26.8714 
4 *609:6 *9145:B1 26.3179 
5 *609:4 *609:36 9.64286 
6 *609:36 *9149:B1 18.5143 
7 *609:36 *9452:A1 15.5679 
*END

*D_NET *610 0.0103468
*CONN
*I *9242:A1 I *D sky130_fd_sc_hd__a22o_1
*I *9153:B I *D sky130_fd_sc_hd__nor2_1
*I *9454:A1 I *D sky130_fd_sc_hd__mux2_1
*I *9150:B1 I *D sky130_fd_sc_hd__a221o_1
*I *9635:Q O *D sky130_fd_sc_hd__dfrtp_1
*CAP
1 *9242:A1 0.00261997
2 *9153:B 0.000452666
3 *9454:A1 0
4 *9150:B1 0.00016548
5 *9635:Q 0
6 *610:22 0.000298808
7 *610:14 0.000975563
8 *610:4 0.00300954
9 *9150:B1 *9096:A 0.000632952
10 *9150:B1 *9454:A0 5.71472e-05
11 *9242:A1 *1189:DIODE 3.61629e-06
12 *9242:A1 *9094:A 0.000430638
13 *9242:A1 *9242:B2 3.57366e-05
14 *610:14 *1189:DIODE 0.000180068
15 *610:14 *815:21 0
16 *610:22 *9096:A 4.43256e-05
17 *610:22 *9454:A0 4.18895e-05
18 *610:22 *815:21 0
19 *9094:B *9242:A1 0.000235341
20 *9150:B2 *9150:B1 0.000111538
21 *9156:B *9153:B 0
22 *9242:A2 *9242:A1 0.000134471
23 *9242:B1 *9242:A1 6.05161e-06
24 *9454:S *610:22 1.04232e-05
25 *9635:CLK *9153:B 2.13481e-06
26 *9635:CLK *610:14 0.000160291
27 *9635:D *9153:B 0.000119125
28 *9638:CLK *9242:A1 0.000113573
29 *9638:D *9242:A1 5.49489e-05
30 *322:37 *610:22 2.28598e-05
31 *322:41 *9150:B1 0.000205788
32 *322:41 *610:22 4.87854e-05
33 *388:16 *610:14 4.73656e-05
34 *388:16 *610:22 0.000125724
*RES
1 *9635:Q *610:4 9.3 
2 *610:4 *610:14 12.6786 
3 *610:14 *610:22 7.92857 
4 *610:22 *9150:B1 16.55 
5 *610:22 *9454:A1 9.3 
6 *610:14 *9153:B 19.4786 
7 *610:4 *9242:A1 41.8893 
*END

*D_NET *611 0.0147359
*CONN
*I *9812:A I *D sky130_fd_sc_hd__dlygate4sd3_1
*I *9137:A I *D sky130_fd_sc_hd__inv_2
*I *9256:A I *D sky130_fd_sc_hd__and3_1
*I *9636:Q O *D sky130_fd_sc_hd__dfrtp_1
*CAP
1 *9812:A 0.000300638
2 *9137:A 0
3 *9256:A 0
4 *9636:Q 9.95795e-05
5 *611:34 0.00183773
6 *611:20 0.00357928
7 *611:12 0.00214176
8 *9812:A *736:16 8.28902e-05
9 *611:12 *736:16 5.52238e-05
10 *611:20 *9096:A 0.00100144
11 *611:20 *9108:A 0.000835027
12 *611:34 *9550:A1 4.72818e-05
13 *611:34 *9556:A0 8.16036e-05
14 *611:34 *9633:RESET_B 4.68041e-05
15 *611:34 *721:14 0.000103646
16 *611:34 *822:29 6.16744e-05
17 *1009:DIODE *611:34 9.90431e-05
18 *9087:A *611:20 9.31794e-05
19 *9087:B *611:20 5.52238e-05
20 *9096:B *611:20 0.000381775
21 *9105:B *611:20 4.35336e-05
22 *9106:B *9812:A 8.17543e-05
23 *9106:B *611:12 0.000101545
24 *9106:B *611:20 5.33005e-05
25 *9108:B *611:20 1.02821e-05
26 *9550:S *611:34 0.000356028
27 *9630:CLK *611:34 3.1877e-05
28 *9633:CLK *611:34 7.68746e-05
29 *9731:A *611:34 0.000110107
30 *269:8 *611:12 9.91086e-05
31 *347:78 *611:34 0.00167022
32 *369:18 *611:34 7.37055e-05
33 *537:40 *611:34 0.00048746
34 *537:42 *611:34 0.000144773
35 *537:50 *611:34 9.90431e-05
36 *566:60 *611:34 0.000351867
37 *566:62 *611:34 8.6229e-06
38 *608:12 *611:20 1.33343e-05
39 *608:12 *611:34 1.86687e-05
*RES
1 *9636:Q *611:12 20.175 
2 *611:12 *611:20 33.3393 
3 *611:20 *611:34 48.3214 
4 *611:34 *9256:A 9.3 
5 *611:20 *9137:A 9.3 
6 *611:12 *9812:A 13.9964 
*END

*D_NET *612 0.00594295
*CONN
*I *9334:A2 I *D sky130_fd_sc_hd__a21oi_1
*I *9329:A2 I *D sky130_fd_sc_hd__a21oi_1
*I *9330:A2 I *D sky130_fd_sc_hd__o21a_1
*I *9807:A I *D sky130_fd_sc_hd__dlygate4sd3_1
*I *9063:B I *D sky130_fd_sc_hd__and3_1
*I *9581:Q O *D sky130_fd_sc_hd__dfrtp_1
*CAP
1 *9334:A2 0
2 *9329:A2 7.36067e-05
3 *9330:A2 0.000243993
4 *9807:A 3.0858e-05
5 *9063:B 0
6 *9581:Q 0.000160746
7 *612:60 0.000626618
8 *612:54 0.00060231
9 *612:37 0.000986977
10 *612:8 0.000823573
11 *9329:A2 *9329:A1 3.63587e-05
12 *9330:A2 *9330:A1 0
13 *9330:A2 *730:41 3.66196e-05
14 *9330:A2 *730:60 0.000202553
15 *9330:A2 *730:66 2.96741e-05
16 *612:8 *9818:A 0
17 *612:8 *663:31 0
18 *612:37 *9063:A 0.000240905
19 *612:37 *9336:A1 0.000103138
20 *612:37 *9336:B1_N 5.33201e-05
21 *612:37 *9818:A 9.60875e-05
22 *612:37 *663:31 4.43256e-05
23 *612:37 *730:167 9.15804e-05
24 *612:54 *730:18 1.57414e-05
25 *612:60 *9335:C1 6.8646e-06
26 *612:60 *730:18 7.77751e-05
27 *612:60 *730:22 5.07157e-05
28 *612:60 *730:41 1.78353e-05
29 *9064:B *612:54 0
30 *9330:B1 *9330:A2 0.000503913
31 *9330:B1 *612:60 0.00010326
32 *9335:A1 *9807:A 5.7616e-05
33 *9335:A1 *612:54 6.98302e-05
34 *9335:A2 *9329:A2 0
35 *9335:A2 *612:54 9.90431e-05
36 *9336:A2 *9807:A 0
37 *9583:CLK *9330:A2 0
38 *227:8 *612:37 0.000184745
39 *227:25 *612:37 0
40 *227:25 *612:54 0.000217141
41 *228:22 *612:54 5.52302e-05
*RES
1 *9581:Q *612:8 16.3536 
2 *612:8 *9063:B 13.8 
3 *612:8 *612:37 30.125 
4 *612:37 *9807:A 14.5321 
5 *612:37 *612:54 10.3929 
6 *612:54 *612:60 10.5536 
7 *612:60 *9330:A2 21.5679 
8 *612:60 *9329:A2 15.1929 
9 *612:54 *9334:A2 9.3 
*END

*D_NET *613 0.00566024
*CONN
*I *9334:A1 I *D sky130_fd_sc_hd__a21oi_1
*I *9063:A I *D sky130_fd_sc_hd__and3_1
*I *9329:A1 I *D sky130_fd_sc_hd__a21oi_1
*I *9330:A1 I *D sky130_fd_sc_hd__o21a_1
*I *9582:Q O *D sky130_fd_sc_hd__dfrtp_1
*CAP
1 *9334:A1 0.000108117
2 *9063:A 0.000816739
3 *9329:A1 0.000119952
4 *9330:A1 0.000274494
5 *9582:Q 0
6 *613:21 0.000936691
7 *613:19 0.000310111
8 *613:6 0.000476489
9 *9063:A *9063:C 0.000306128
10 *9063:A *9336:A1 1.02821e-05
11 *9063:A *9336:B1_N 0.000347809
12 *9063:A *614:8 0
13 *9329:A1 *730:35 7.06479e-05
14 *9329:A1 *730:37 1.3701e-05
15 *9330:A1 *9583:D 0
16 *9334:A1 *730:22 0
17 *613:19 *9328:A1 3.25078e-05
18 *613:19 *9335:C1 0
19 *9065:B *9330:A1 1.98839e-05
20 *9329:A2 *9329:A1 3.63587e-05
21 *9330:A2 *9330:A1 0
22 *9330:B1 *9329:A1 5.33005e-05
23 *9330:B1 *9330:A1 9.90431e-05
24 *9335:A1 *9063:A 9.77274e-05
25 *9335:A2 *9334:A1 0.000148196
26 *9335:A2 *613:19 0.000101545
27 *9335:B1 *9063:A 9.60939e-05
28 *9335:B1 *9329:A1 0.00014285
29 *9336:A2 *9063:A 5.80706e-06
30 *9583:CLK *9330:A1 5.26184e-05
31 *9584:D *9063:A 3.97657e-05
32 *9584:D *613:19 0
33 *9819:A *9329:A1 3.51531e-05
34 *9819:A *9330:A1 0.000233794
35 *9819:A *613:19 0.000144089
36 *98:10 *9330:A1 6.05161e-06
37 *228:22 *9063:A 0.000125547
38 *228:22 *9329:A1 0.000140933
39 *228:22 *613:19 1.69115e-05
40 *612:37 *9063:A 0.000240905
*RES
1 *9582:Q *613:6 13.8 
2 *613:6 *9330:A1 20.2643 
3 *613:6 *613:19 4.67857 
4 *613:19 *613:21 4.5 
5 *613:21 *9329:A1 13.2821 
6 *613:21 *9063:A 32.7643 
7 *613:19 *9334:A1 16.05 
*END

*D_NET *614 0.0020075
*CONN
*I *9818:A I *D sky130_fd_sc_hd__dlygate4sd3_1
*I *9063:C I *D sky130_fd_sc_hd__and3_1
*I *9583:Q O *D sky130_fd_sc_hd__dfrtp_1
*CAP
1 *9818:A 0.00010823
2 *9063:C 8.69549e-05
3 *9583:Q 0.000212598
4 *614:8 0.000407784
5 *9063:C *9336:A1 1.98839e-05
6 *9063:C *9336:B1_N 3.57366e-05
7 *9063:C *9816:A 0.000142856
8 *9818:A *9336:B1_N 4.73656e-05
9 *9818:A *9816:A 1.02504e-05
10 *9818:A *663:31 0.000171148
11 *9818:A *730:167 0.000148189
12 *614:8 *9336:B1_N 1.02504e-05
13 *614:8 *9581:RESET_B 0
14 *614:8 *9816:A 0.000123295
15 *9063:A *9063:C 0.000306128
16 *9063:A *614:8 0
17 *227:8 *9063:C 1.32552e-05
18 *591:42 *614:8 6.74911e-05
19 *612:8 *9818:A 0
20 *612:37 *9818:A 9.60875e-05
*RES
1 *9583:Q *614:8 17.8714 
2 *614:8 *9063:C 17.1571 
3 *614:8 *9818:A 17.3 
*END

*D_NET *615 0.00168567
*CONN
*I *9816:A I *D sky130_fd_sc_hd__buf_1
*I *9584:Q O *D sky130_fd_sc_hd__dfrtp_1
*CAP
1 *9816:A 0.000547105
2 *9584:Q 0.000547105
3 *9816:A *9336:A1 5.52302e-05
4 *9063:C *9816:A 0.000142856
5 *9581:CLK *9816:A 0.000170898
6 *9581:D *9816:A 5.19842e-06
7 *9818:A *9816:A 1.02504e-05
8 *227:8 *9816:A 3.48705e-05
9 *591:57 *9816:A 4.88631e-05
10 *614:8 *9816:A 0.000123295
*RES
1 *9584:Q *9816:A 36.475 
*END

*D_NET *616 0.0189961
*CONN
*I *911:DIODE I *D sky130_fd_sc_hd__diode_2
*I *9169:A I *D sky130_fd_sc_hd__and2_1
*I *939:DIODE I *D sky130_fd_sc_hd__diode_2
*I *9191:B I *D sky130_fd_sc_hd__and4b_1
*I *9214:A1 I *D sky130_fd_sc_hd__a21o_1
*I *960:DIODE I *D sky130_fd_sc_hd__diode_2
*I *9718:Q O *D sky130_fd_sc_hd__dfrtp_1
*CAP
1 *911:DIODE 3.23018e-05
2 *9169:A 0
3 *939:DIODE 0.00038131
4 *9191:B 7.50282e-05
5 *9214:A1 1.84213e-05
6 *960:DIODE 0.000139411
7 *9718:Q 0.00132431
8 *616:96 0.000147603
9 *616:48 0.000390589
10 *616:38 0.000490038
11 *616:34 0.00217531
12 *616:20 0.00318781
13 *616:14 0.00278506
14 *911:DIODE *9197:A 4.70078e-05
15 *911:DIODE *899:28 0.00014183
16 *939:DIODE *619:38 0
17 *939:DIODE *708:14 0
18 *9191:B *619:38 6.86621e-05
19 *9191:B *619:51 8.89345e-05
20 *9191:B *698:43 2.14757e-05
21 *616:14 *9352:A1 0
22 *616:14 *9353:A1 0.000254732
23 *616:14 *9531:A1 0
24 *616:14 *9533:A0 5.01213e-05
25 *616:14 *9718:RESET_B 0.000358146
26 *616:14 *9762:A 0.000128154
27 *616:14 *9798:A 0.000151619
28 *616:14 *735:87 2.06379e-05
29 *616:14 *747:21 4.37006e-05
30 *616:14 *747:28 0.000240037
31 *616:14 *747:38 7.48356e-05
32 *616:14 *747:52 0.00011553
33 *616:14 *747:59 0.000140368
34 *616:14 *747:98 0.000238521
35 *616:14 *747:105 0.00069352
36 *616:14 *799:10 0
37 *616:14 *800:14 0
38 *616:20 *9169:B 0
39 *616:20 *9354:A1 5.64168e-05
40 *616:20 *9355:A1 0
41 *616:20 *9357:B1_N 0
42 *616:20 *9358:A2 2.28335e-05
43 *616:20 *9595:RESET_B 0
44 *616:20 *730:90 0
45 *616:20 *736:36 4.56437e-05
46 *616:20 *736:58 4.06782e-05
47 *616:20 *747:10 0.000127439
48 *616:20 *747:21 0.000159822
49 *616:20 *872:10 0
50 *616:34 *9169:B 2.00751e-05
51 *616:34 *709:35 0.000121425
52 *616:34 *719:14 0.000151333
53 *616:34 *720:16 5.52302e-05
54 *616:34 *720:18 0.000358971
55 *616:34 *720:26 0.000224583
56 *616:34 *751:52 0
57 *616:48 *619:38 3.98018e-05
58 *616:96 *9169:B 1.68913e-05
59 *616:96 *9197:A 0.000183726
60 *616:96 *867:18 0
61 *616:96 *899:28 6.97409e-05
62 *9166:B1 *616:20 0.00012416
63 *9167:C1 *616:20 2.94729e-05
64 *9168:A2 *616:20 4.56089e-05
65 *9168:B1 *616:20 0.000149413
66 *9170:A *616:34 0.000153054
67 *9187:C1 *616:20 0
68 *9191:C *9191:B 0.000142004
69 *9194:A *616:34 9.60337e-06
70 *9194:C *616:34 5.7993e-06
71 *9195:C1 *616:34 8.18752e-05
72 *9196:A1 *939:DIODE 2.34969e-05
73 *9196:A1 *616:48 0.000138334
74 *9200:B1 *616:20 0
75 *9200:B1 *616:34 0
76 *9214:B1 *616:48 5.33005e-05
77 *9215:B *616:48 3.08664e-05
78 *9354:B1 *616:20 0.000133711
79 *9359:B1 *616:20 7.50697e-05
80 *9359:B2 *616:20 0.000102545
81 *9595:D *616:20 0
82 *9640:CLK *616:14 0
83 *321:21 *616:14 7.02772e-05
84 *321:21 *616:20 9.0192e-05
85 *321:40 *616:14 0.000189334
86 *321:59 *616:14 0.000188007
87 *321:120 *616:20 0.000198698
88 *321:133 *616:20 3.46786e-05
89 *323:8 *616:20 9.886e-06
90 *325:10 *616:20 0.000222913
91 *335:32 *960:DIODE 1.59373e-05
92 *335:32 *9214:A1 1.02132e-05
93 *335:32 *616:48 3.29853e-05
94 *335:40 *960:DIODE 0.00031596
95 *348:210 *939:DIODE 8.31664e-05
96 *348:210 *9191:B 0
97 *348:212 *939:DIODE 0.000102267
98 *348:216 *939:DIODE 1.30594e-05
99 *348:220 *939:DIODE 5.49489e-05
100 *348:343 *616:20 0
101 *368:10 *939:DIODE 0.000147725
102 *369:290 *616:20 2.06178e-05
103 *461:34 *616:20 0.000177323
104 *584:361 *616:14 0
105 *589:12 *616:14 0
106 *601:66 *616:34 0
*RES
1 *9718:Q *616:14 49.2732 
2 *616:14 *616:20 31.4643 
3 *616:20 *616:34 25.7784 
4 *616:34 *616:38 3.6732 
5 *616:38 *616:48 9.4375 
6 *616:48 *960:DIODE 12.7107 
7 *616:48 *9214:A1 9.72857 
8 *616:38 *9191:B 16.1482 
9 *616:34 *939:DIODE 25.0046 
10 *616:20 *616:96 8.00893 
11 *616:96 *9169:A 9.3 
12 *616:96 *911:DIODE 10.6571 
*END

*D_NET *617 0.00055944
*CONN
*I *9766:A I *D sky130_fd_sc_hd__dlygate4sd3_1
*I *9719:Q O *D sky130_fd_sc_hd__dfrtp_1
*CAP
1 *9766:A 0.000166103
2 *9719:Q 0.000166103
3 *9766:A *730:14 0.000185643
4 *9766:A *749:197 4.15914e-05
5 *404:14 *9766:A 0
*RES
1 *9719:Q *9766:A 31.1357 
*END

*D_NET *618 0.000112637
*CONN
*I *9755:A I *D sky130_fd_sc_hd__dlygate4sd3_1
*I *9720:Q O *D sky130_fd_sc_hd__dfrtp_1
*CAP
1 *9755:A 5.63185e-05
2 *9720:Q 5.63185e-05
*RES
1 *9720:Q *9755:A 19.5464 
*END

*D_NET *619 0.034895
*CONN
*I *927:DIODE I *D sky130_fd_sc_hd__diode_2
*I *9182:A_N I *D sky130_fd_sc_hd__and3b_2
*I *912:DIODE I *D sky130_fd_sc_hd__diode_2
*I *924:DIODE I *D sky130_fd_sc_hd__diode_2
*I *931:DIODE I *D sky130_fd_sc_hd__diode_2
*I *9175:A I *D sky130_fd_sc_hd__nor2_1
*I *9180:D I *D sky130_fd_sc_hd__and4b_1
*I *9184:A_N I *D sky130_fd_sc_hd__and4bb_1
*I *9183:A I *D sky130_fd_sc_hd__and3_1
*I *929:DIODE I *D sky130_fd_sc_hd__diode_2
*I *9177:D I *D sky130_fd_sc_hd__and4bb_1
*I *9191:D I *D sky130_fd_sc_hd__and4b_1
*I *919:DIODE I *D sky130_fd_sc_hd__diode_2
*I *940:DIODE I *D sky130_fd_sc_hd__diode_2
*I *9848:X O *D sky130_fd_sc_hd__buf_2
*CAP
1 *927:DIODE 0.000224632
2 *9182:A_N 5.39296e-05
3 *912:DIODE 0.000267515
4 *924:DIODE 0
5 *931:DIODE 0.000197027
6 *9175:A 1.76505e-05
7 *9180:D 1.83398e-05
8 *9184:A_N 6.58369e-05
9 *9183:A 0
10 *929:DIODE 0.000178278
11 *9177:D 0
12 *9191:D 0
13 *919:DIODE 0
14 *940:DIODE 0.000125165
15 *9848:X 0
16 *619:160 0.000348445
17 *619:140 0.000304758
18 *619:127 0.000592231
19 *619:99 3.59903e-05
20 *619:97 0.000432285
21 *619:68 0.000308289
22 *619:64 0.00024881
23 *619:62 0.000528723
24 *619:53 0.000401436
25 *619:51 0.000172837
26 *619:38 0.000325183
27 *619:18 0.000125165
28 *619:16 0.00186736
29 *619:10 0.00517363
30 *619:8 0.00639944
31 *619:4 0.00287094
32 *912:DIODE *9195:A1 7.83659e-05
33 *912:DIODE *899:28 0.000295925
34 *927:DIODE *928:DIODE 0.000260586
35 *929:DIODE *920:DIODE 0
36 *929:DIODE *930:DIODE 7.58571e-05
37 *929:DIODE *698:89 2.05938e-05
38 *929:DIODE *709:71 3.17148e-05
39 *931:DIODE *9180:C 2.61337e-05
40 *931:DIODE *709:39 0.00012501
41 *9175:A *9180:C 5.33005e-05
42 *9180:D *9180:C 8.7131e-05
43 *9182:A_N *899:28 9.76798e-05
44 *9184:A_N *9177:B_N 4.70048e-05
45 *9184:A_N *9177:C 5.04841e-06
46 *9184:A_N *9184:D 7.48927e-06
47 *619:8 *751:12 0.00173481
48 *619:10 *9876:A 0.000276211
49 *619:10 *9881:A 0.000144773
50 *619:10 *9892:A 0.000320024
51 *619:10 *751:12 0.00406612
52 *619:16 *9206:B2 0
53 *619:16 *9898:A 0
54 *619:16 *708:14 0.00140757
55 *619:38 *698:43 6.86621e-05
56 *619:38 *708:10 3.4323e-06
57 *619:38 *708:14 0.000112777
58 *619:51 *698:43 0.000200993
59 *619:62 *9177:B_N 0.000313235
60 *619:62 *9177:C 5.97398e-05
61 *619:64 *698:126 7.95888e-05
62 *619:64 *732:44 0
63 *619:68 *920:DIODE 0
64 *619:68 *698:126 1.86129e-05
65 *619:68 *709:71 0.000205852
66 *619:97 *698:126 0.00012401
67 *619:97 *732:44 0
68 *619:127 *9186:B1 1.96517e-05
69 *619:127 *698:126 4.29471e-05
70 *619:127 *732:44 0
71 *619:127 *899:28 0.00018372
72 *619:140 *899:28 4.27935e-05
73 *939:DIODE *619:38 0
74 *9178:A *927:DIODE 0.000147862
75 *9181:C1 *619:127 5.01213e-05
76 *9186:A3 *619:127 0.000100823
77 *9186:B2 *619:127 6.05161e-06
78 *9191:B *619:38 6.86621e-05
79 *9191:B *619:51 8.89345e-05
80 *9191:C *619:51 6.96878e-05
81 *9191:C *619:62 0.000137983
82 *9195:A2 *912:DIODE 0
83 *9199:C1 *619:127 7.46707e-05
84 *9205:A2 *9182:A_N 0.000137938
85 *9214:B1 *619:38 0.00019408
86 *9322:A *931:DIODE 0.00012501
87 *334:25 *931:DIODE 0.000114617
88 *335:22 *9184:A_N 0.000136958
89 *335:22 *619:68 0.00014576
90 *335:86 *931:DIODE 5.94339e-05
91 *336:10 *927:DIODE 4.42509e-05
92 *336:10 *619:51 8.6229e-06
93 *336:10 *619:160 0.000133146
94 *337:22 *927:DIODE 9.79244e-05
95 *337:32 *927:DIODE 0
96 *338:29 *9175:A 1.98839e-05
97 *338:29 *9180:D 4.66943e-05
98 *341:27 *619:127 0.000266473
99 *344:10 *940:DIODE 0.000184522
100 *348:210 *927:DIODE 1.23589e-05
101 *348:210 *619:51 2.62951e-05
102 *348:210 *619:160 6.59167e-05
103 *348:230 *619:16 0.000125593
104 *377:16 *931:DIODE 0.000146313
105 *377:16 *619:127 9.73985e-05
106 *616:48 *619:38 3.98018e-05
*RES
1 *9848:X *619:4 9.3 
2 *619:4 *619:8 41.4196 
3 *619:8 *619:10 75.4911 
4 *619:10 *619:16 42.8036 
5 *619:16 *619:18 4.5 
6 *619:18 *940:DIODE 11.0679 
7 *619:18 *919:DIODE 9.3 
8 *619:16 *619:38 9.75446 
9 *619:38 *9191:D 9.3 
10 *619:38 *619:51 7.72768 
11 *619:51 *619:53 4.5 
12 *619:53 *9177:D 9.3 
13 *619:53 *619:62 9.96429 
14 *619:62 *619:64 1.03571 
15 *619:64 *619:68 3.39286 
16 *619:68 *929:DIODE 17.5679 
17 *619:68 *9183:A 13.8 
18 *619:64 *9184:A_N 15.5857 
19 *619:62 *619:97 1.64286 
20 *619:97 *619:99 4.5 
21 *619:99 *9180:D 10.1348 
22 *619:99 *9175:A 9.83571 
23 *619:97 *619:127 21.4464 
24 *619:127 *931:DIODE 23.8893 
25 *619:127 *619:140 0.535714 
26 *619:140 *924:DIODE 9.3 
27 *619:140 *912:DIODE 22.3357 
28 *619:51 *619:160 1.94643 
29 *619:160 *9182:A_N 15.7107 
30 *619:160 *927:DIODE 18.8179 
*END

*D_NET *620 0.000838114
*CONN
*I *9188:B I *D sky130_fd_sc_hd__nand2_8
*I *9849:X O *D sky130_fd_sc_hd__clkbuf_2
*CAP
1 *9188:B 0.000343463
2 *9849:X 0.000343463
3 *9188:B *700:12 0.000151187
*RES
1 *9849:X *9188:B 32.5464 
*END

*D_NET *621 0.00300528
*CONN
*I *9473:B2 I *D sky130_fd_sc_hd__a22o_1
*I *9474:A1 I *D sky130_fd_sc_hd__a22o_1
*I *9576:A0 I *D sky130_fd_sc_hd__mux2_1
*I *9773:X O *D sky130_fd_sc_hd__dlygate4sd3_1
*CAP
1 *9473:B2 0.000200296
2 *9474:A1 0.000105582
3 *9576:A0 0.000161176
4 *9773:X 0
5 *621:10 0.0005961
6 *621:4 0.000529637
7 *9473:B2 *9773:A 0
8 *9474:A1 *863:10 0.000106542
9 *9474:A1 *863:28 7.48356e-05
10 *9576:A0 *9576:A1 0.000183713
11 *621:10 *9647:RESET_B 0.000106844
12 *621:10 *9773:A 0.000200317
13 *621:10 *863:10 4.46186e-06
14 *9646:CLK *9473:B2 0
15 *539:116 *9474:A1 1.02504e-05
16 *539:124 *9473:B2 0
17 *539:124 *9474:A1 0.000335674
18 *539:124 *621:10 0.000389854
*RES
1 *9773:X *621:4 9.3 
2 *621:4 *621:10 12.0714 
3 *621:10 *9576:A0 15.9786 
4 *621:10 *9474:A1 18.175 
5 *621:4 *9473:B2 21.7643 
*END

*D_NET *622 0.000264025
*CONN
*I *9647:D I *D sky130_fd_sc_hd__dfrtp_1
*I *9774:X O *D sky130_fd_sc_hd__dlygate4sd3_1
*CAP
1 *9647:D 0.000103439
2 *9774:X 0.000103439
3 *9647:CLK *9647:D 5.71472e-05
*RES
1 *9774:X *9647:D 20.3679 
*END

*D_NET *623 0.00441679
*CONN
*I *9572:A0 I *D sky130_fd_sc_hd__mux2_1
*I *9471:B2 I *D sky130_fd_sc_hd__a22o_1
*I *9472:A1 I *D sky130_fd_sc_hd__a22o_1
*I *9775:X O *D sky130_fd_sc_hd__clkdlybuf4s25_1
*CAP
1 *9572:A0 0.000541416
2 *9471:B2 3.00142e-05
3 *9472:A1 0.000233096
4 *9775:X 0
5 *623:14 0.000755364
6 *623:4 0.00103367
7 *9471:B2 *9471:A1 3.57366e-05
8 *9472:A1 *9471:A1 5.62995e-05
9 *9472:A1 *9472:B2 1.97381e-05
10 *9472:A1 *9473:A1 1.02504e-05
11 *9572:A0 *9775:A 7.83659e-05
12 *623:14 *9470:B2 4.87953e-05
13 *623:14 *9644:RESET_B 3.9745e-05
14 *623:14 *9794:A 0.000198698
15 *623:14 *704:8 0
16 *1088:DIODE *9472:A1 0
17 *9470:A2 *9471:B2 0
18 *9470:A2 *623:14 2.89114e-05
19 *9470:B1 *9472:A1 1.45274e-05
20 *9470:B1 *623:14 5.72814e-05
21 *9573:A *9572:A0 7.61932e-05
22 *9642:CLK *9572:A0 7.43578e-06
23 *9646:D *9472:A1 5.52302e-05
24 *9776:A *9472:A1 9.80173e-05
25 *9796:A *623:14 0
26 *537:99 *623:14 0.000680599
27 *537:125 *9472:A1 0
28 *537:138 *9472:A1 0.00023155
29 *539:193 *9472:A1 7.49387e-06
30 *593:12 *9572:A0 7.83659e-05
*RES
1 *9775:X *623:4 9.3 
2 *623:4 *623:14 21.0536 
3 *623:14 *9472:A1 23.5679 
4 *623:14 *9471:B2 10.0321 
5 *623:4 *9572:A0 26.175 
*END

*D_NET *624 0.000234353
*CONN
*I *9645:D I *D sky130_fd_sc_hd__dfrtp_1
*I *9776:X O *D sky130_fd_sc_hd__dlygate4sd3_1
*CAP
1 *9645:D 0.000105805
2 *9776:X 0.000105805
3 *9645:CLK *9645:D 2.27416e-05
*RES
1 *9776:X *9645:D 20.3679 
*END

*D_NET *625 0.00320649
*CONN
*I *9484:B2 I *D sky130_fd_sc_hd__a22o_1
*I *9485:A1 I *D sky130_fd_sc_hd__a22o_1
*I *9778:X O *D sky130_fd_sc_hd__dlygate4sd3_1
*CAP
1 *9484:B2 0.000204479
2 *9485:A1 0.000190687
3 *9778:X 0.000225745
4 *625:10 0.00062091
5 *9484:B2 *9136:A_N 0.000370598
6 *9484:B2 *9136:B_N 0.000313192
7 *9484:B2 *9833:A 3.99614e-06
8 *9485:A1 *789:16 0.000168939
9 *9485:A1 *789:20 0.000110509
10 *9485:A1 *792:10 4.46186e-06
11 *9485:A1 *792:33 8.03554e-05
12 *625:10 *9531:A0 7.83587e-05
13 *625:10 *9656:RESET_B 0.000219711
14 *625:10 *789:16 0.000166269
15 *625:10 *792:10 5.08481e-05
16 *9136:D *9484:B2 4.4873e-05
17 *9686:D *9485:A1 7.46851e-05
18 *299:16 *9484:B2 0.000224577
19 *540:378 *9484:B2 5.33005e-05
*RES
1 *9778:X *625:10 18.2286 
2 *625:10 *9485:A1 18.5321 
3 *625:10 *9484:B2 20.9429 
*END

*D_NET *626 0.000587547
*CONN
*I *9656:D I *D sky130_fd_sc_hd__dfrtp_1
*I *9779:X O *D sky130_fd_sc_hd__dlygate4sd3_1
*CAP
1 *9656:D 0.000161981
2 *9779:X 0.000161981
3 *9656:D *793:22 0.000173941
4 *9656:CLK *9656:D 2.84109e-05
5 *9779:A *9656:D 0
6 *383:14 *9656:D 4.63779e-06
7 *540:370 *9656:D 5.65955e-05
*RES
1 *9779:X *9656:D 30.9214 
*END

*D_NET *627 0.000924721
*CONN
*I *9490:A1 I *D sky130_fd_sc_hd__a22o_1
*I *9489:B2 I *D sky130_fd_sc_hd__a22o_1
*I *9780:X O *D sky130_fd_sc_hd__dlygate4sd3_1
*CAP
1 *9490:A1 0.00016075
2 *9489:B2 0.00015022
3 *9780:X 4.06861e-05
4 *627:6 0.000351656
5 *9489:B2 *9489:A1 5.23142e-05
6 *9490:A1 *757:18 0
7 *9490:A2 *9490:A1 8.00806e-05
8 *9692:D *9489:B2 3.18676e-05
9 *9692:D *9490:A1 0
10 *9781:A *9490:A1 0
11 *9781:A *627:6 5.71472e-05
*RES
1 *9780:X *627:6 10.2464 
2 *627:6 *9489:B2 12.3357 
3 *627:6 *9490:A1 20.675 
*END

*D_NET *628 0.000488147
*CONN
*I *9661:D I *D sky130_fd_sc_hd__dfrtp_1
*I *9781:X O *D sky130_fd_sc_hd__dlygate4sd3_1
*CAP
1 *9661:D 0.000151251
2 *9781:X 0.000151251
3 *9661:D *9539:A0 9.47456e-05
4 *9661:D *9780:A 2.89016e-05
5 *9662:D *9661:D 1.58213e-06
6 *598:105 *9661:D 6.04162e-05
*RES
1 *9781:X *9661:D 30.9214 
*END

*D_NET *629 0.00463894
*CONN
*I *9486:A1 I *D sky130_fd_sc_hd__a22o_1
*I *9485:B2 I *D sky130_fd_sc_hd__a22o_1
*I *9782:X O *D sky130_fd_sc_hd__dlygate4sd3_1
*CAP
1 *9486:A1 0.000369251
2 *9485:B2 0.000597268
3 *9782:X 0
4 *629:4 0.000966519
5 *9485:B2 *9833:A 0.000150625
6 *9485:B2 *9837:A 0.000274345
7 *9485:B2 *789:16 0.000699853
8 *9485:B2 *789:20 0.000175512
9 *9485:B2 *791:46 0
10 *9485:B2 *791:64 1.0562e-05
11 *9486:A1 *9486:B2 5.33005e-05
12 *9486:A1 *9659:RESET_B 0.000250201
13 *9486:A1 *746:8 0.000116474
14 *9486:A1 *791:38 9.16173e-05
15 *9486:A1 *792:10 0.000248486
16 *9486:A1 *792:67 0.00017309
17 *1150:DIODE *9485:B2 8.9163e-05
18 *9486:A2 *9486:A1 9.28838e-05
19 *348:161 *9486:A1 1.46717e-05
20 *442:127 *9486:A1 0.00018077
21 *540:212 *9486:A1 6.87476e-05
22 *588:14 *9486:A1 1.56e-05
*RES
1 *9782:X *629:4 9.3 
2 *629:4 *9485:B2 31.8357 
3 *629:4 *9486:A1 29.3893 
*END

*D_NET *630 0.0016764
*CONN
*I *9476:A1 I *D sky130_fd_sc_hd__a22o_1
*I *9783:X O *D sky130_fd_sc_hd__dlygate4sd3_1
*CAP
1 *9476:A1 0.00054628
2 *9783:X 0.00054628
3 *9476:A1 *9548:A0 2.44318e-05
4 *9476:A1 *9548:A1 0.000270326
5 *9476:A2 *9476:A1 3.18676e-05
6 *9548:S *9476:A1 1.21289e-05
7 *537:63 *9476:A1 0.000119193
8 *539:292 *9476:A1 2.49291e-05
9 *566:263 *9476:A1 0.00010096
*RES
1 *9783:X *9476:A1 26.5464 
*END

*D_NET *631 0.00777644
*CONN
*I *9274:A I *D sky130_fd_sc_hd__nand2_4
*I *9850:X O *D sky130_fd_sc_hd__buf_1
*CAP
1 *9274:A 2.23854e-05
2 *9850:X 0.000214626
3 *631:12 0.00265468
4 *631:10 0.00284692
5 *631:10 *9878:A 0
6 *631:12 *9878:A 0.000338008
7 *631:12 *706:10 0.00152712
8 *1004:DIODE *631:12 7.17235e-05
9 *9253:A *631:12 0.00010096
*RES
1 *9850:X *631:10 22.0679 
2 *631:10 *631:12 52.2857 
3 *631:12 *9274:A 9.72857 
*END

*D_NET *632 0.000269447
*CONN
*I *9650:D I *D sky130_fd_sc_hd__dfrtp_1
*I *9784:X O *D sky130_fd_sc_hd__dlygate4sd3_1
*CAP
1 *9650:D 9.58361e-05
2 *9784:X 9.58361e-05
3 *9650:CLK *9650:D 7.77751e-05
*RES
1 *9784:X *9650:D 20.3679 
*END

*D_NET *633 0.00353644
*CONN
*I *9491:A1 I *D sky130_fd_sc_hd__a22o_1
*I *9490:B2 I *D sky130_fd_sc_hd__a22o_1
*I *9785:X O *D sky130_fd_sc_hd__dlygate4sd3_1
*CAP
1 *9491:A1 0.000313707
2 *9490:B2 0.00111966
3 *9785:X 0
4 *633:6 0.00143337
5 *9490:B2 *9067:B 0
6 *9490:B2 *806:10 2.19307e-05
7 *9491:A1 *9491:B2 5.52238e-05
8 *9491:A1 *9541:A1 0
9 *9490:B1 *9490:B2 1.57296e-05
10 *9491:B1 *9491:A1 3.18676e-05
11 *9663:D *9491:A1 0
12 *9693:CLK *9490:B2 1.97695e-05
13 *540:137 *9490:B2 4.96171e-05
14 *541:189 *9490:B2 9.64695e-05
15 *541:189 *9491:A1 0.000379094
*RES
1 *9785:X *633:6 13.8 
2 *633:6 *9490:B2 28.3893 
3 *633:6 *9491:A1 21.5857 
*END

*D_NET *634 0.00105375
*CONN
*I *9498:B2 I *D sky130_fd_sc_hd__a22o_1
*I *9786:X O *D sky130_fd_sc_hd__dlygate4sd3_1
*CAP
1 *9498:B2 0.000245656
2 *9786:X 0.000245656
3 *9498:B2 *9499:A1 0
4 *9498:B2 *9499:B2 6.37509e-05
5 *9498:B2 *794:12 0
6 *9498:B1 *9498:B2 1.39726e-05
7 *383:12 *9498:B2 0.000398815
8 *540:31 *9498:B2 0
9 *541:74 *9498:B2 4.1331e-06
10 *541:83 *9498:B2 8.17713e-05
*RES
1 *9786:X *9498:B2 34.3679 
*END

*D_NET *635 0.00296211
*CONN
*I *9496:A1 I *D sky130_fd_sc_hd__a22o_1
*I *9521:A0 I *D sky130_fd_sc_hd__mux2_1
*I *9495:B2 I *D sky130_fd_sc_hd__a22o_1
*I *9787:X O *D sky130_fd_sc_hd__dlygate4sd3_1
*CAP
1 *9496:A1 4.28137e-05
2 *9521:A0 0.000153534
3 *9495:B2 0.000158903
4 *9787:X 0
5 *635:19 0.000504793
6 *635:4 0.000467348
7 *9495:B2 *9495:A1 6.96878e-05
8 *9521:A0 *9102:A 6.23604e-06
9 *9521:A0 *9521:A1 3.466e-06
10 *9521:A0 *790:14 0.000115361
11 *635:19 *9495:A1 7.19508e-05
12 *635:19 *790:14 0.000545843
13 *9496:A2 *9496:A1 6.03333e-05
14 *9668:D *635:19 0.000284953
15 *9789:A *9495:B2 5.65955e-05
16 *9789:A *635:19 0.000125997
17 *540:160 *9495:B2 2.36643e-05
18 *540:189 *9496:A1 0.000114071
19 *541:218 *9495:B2 0.000136676
20 *541:243 *9496:A1 1.98839e-05
*RES
1 *9787:X *635:4 9.3 
2 *635:4 *9495:B2 12.7286 
3 *635:4 *635:19 13.2679 
4 *635:19 *9521:A0 15.9786 
5 *635:19 *9496:A1 15.175 
*END

*D_NET *636 0.00113736
*CONN
*I *9667:D I *D sky130_fd_sc_hd__dfrtp_1
*I *9789:X O *D sky130_fd_sc_hd__dlygate4sd3_1
*CAP
1 *9667:D 0.000355448
2 *9789:X 0.000355448
3 *9667:D *9519:A1 1.58163e-05
4 *9667:D *746:42 0
5 *9667:D *746:49 0
6 *9667:D *746:118 0
7 *9667:D *791:19 6.4443e-05
8 *9667:D *791:38 0.000290979
9 *589:35 *9667:D 5.52238e-05
*RES
1 *9789:X *9667:D 34.0821 
*END

*D_NET *637 0.000530081
*CONN
*I *9494:B2 I *D sky130_fd_sc_hd__a22o_1
*I *9790:X O *D sky130_fd_sc_hd__dlygate4sd3_1
*CAP
1 *9494:B2 0.000221495
2 *9790:X 0.000221495
3 *9494:B2 *9494:A1 5.52238e-05
4 *9494:B2 *842:14 0
5 *9791:A *9494:B2 0
6 *540:288 *9494:B2 3.18676e-05
*RES
1 *9790:X *9494:B2 31.0286 
*END

*D_NET *638 0.000262621
*CONN
*I *9666:D I *D sky130_fd_sc_hd__dfrtp_1
*I *9791:X O *D sky130_fd_sc_hd__dlygate4sd3_1
*CAP
1 *9666:D 0.00013131
2 *9791:X 0.00013131
3 *9666:D *841:10 0
4 *9666:D *842:10 0
5 *9803:A *9666:D 0
*RES
1 *9791:X *9666:D 29.475 
*END

*D_NET *639 0.000748597
*CONN
*I *9479:A1 I *D sky130_fd_sc_hd__a22o_1
*I *9792:X O *D sky130_fd_sc_hd__dlygate4sd3_1
*CAP
1 *9479:A1 0.00028477
2 *9792:X 0.00028477
3 *9479:A1 *9154:B2 0
4 *9479:A1 *9652:RESET_B 5.33005e-05
5 *9479:A1 *738:132 3.17148e-05
6 *9479:A1 *738:144 8.66063e-05
7 *9479:A1 *827:25 0
8 *9479:A1 *828:10 0
9 *9793:A *9479:A1 7.43578e-06
10 *539:66 *9479:A1 0
11 *592:55 *9479:A1 0
*RES
1 *9792:X *9479:A1 32.725 
*END

*D_NET *640 0.000282462
*CONN
*I *9653:D I *D sky130_fd_sc_hd__dfrtp_1
*I *9793:X O *D sky130_fd_sc_hd__dlygate4sd3_1
*CAP
1 *9653:D 3.24888e-05
2 *9793:X 3.24888e-05
3 *9653:D *9478:B2 9.25014e-06
4 *9653:D *827:25 0.00010326
5 *592:55 *9653:D 0.000104974
*RES
1 *9793:X *9653:D 28.9393 
*END

*D_NET *641 0.00069948
*CONN
*I *9472:B2 I *D sky130_fd_sc_hd__a22o_1
*I *9794:X O *D sky130_fd_sc_hd__dlygate4sd3_1
*CAP
1 *9472:B2 0.000202687
2 *9794:X 0.000202687
3 *9472:B2 *9470:B2 0
4 *9472:B2 *9471:A1 0
5 *9472:B2 *9473:A1 0
6 *9472:A1 *9472:B2 1.97381e-05
7 *9776:A *9472:B2 0.000270236
8 *537:125 *9472:B2 4.1331e-06
*RES
1 *9794:X *9472:B2 31.975 
*END

*D_NET *642 0.000449898
*CONN
*I *9274:B I *D sky130_fd_sc_hd__nand2_4
*I *9851:X O *D sky130_fd_sc_hd__buf_1
*CAP
1 *9274:B 0.000224949
2 *9851:X 0.000224949
*RES
1 *9851:X *9274:B 31.6714 
*END

*D_NET *643 0.000918924
*CONN
*I *9470:B2 I *D sky130_fd_sc_hd__a22o_1
*I *9795:X O *D sky130_fd_sc_hd__dlygate4sd3_1
*CAP
1 *9470:B2 0.000186274
2 *9795:X 0.000186274
3 *9470:B2 *9471:A1 5.9483e-05
4 *9470:B2 *738:10 0.000220463
5 *9470:B2 *738:17 0.000119618
6 *9470:B1 *9470:B2 9.80173e-05
7 *9472:B2 *9470:B2 0
8 *537:125 *9470:B2 0
9 *623:14 *9470:B2 4.87953e-05
*RES
1 *9795:X *9470:B2 32.9214 
*END

*D_NET *644 0.000832405
*CONN
*I *9644:D I *D sky130_fd_sc_hd__dfrtp_1
*I *9796:X O *D sky130_fd_sc_hd__dlygate4sd3_1
*CAP
1 *9644:D 0.00025694
2 *9796:X 0.00025694
3 *9644:D *9469:A1 0
4 *9644:D *9643:D 0.000139913
5 *9644:D *739:30 5.04589e-05
6 *9643:CLK *9644:D 0.000128154
*RES
1 *9796:X *9644:D 31.8321 
*END

*D_NET *645 0.00116182
*CONN
*I *9480:A1 I *D sky130_fd_sc_hd__a22o_1
*I *9797:X O *D sky130_fd_sc_hd__dlygate4sd3_1
*CAP
1 *9480:A1 0.000283273
2 *9797:X 0.000283273
3 *9480:A1 *9480:B2 4.46186e-06
4 *9480:A1 *785:33 0.000311766
5 *9480:A1 *829:10 0
6 *312:22 *9480:A1 9.90367e-05
7 *539:37 *9480:A1 2.59355e-05
8 *539:50 *9480:A1 0.000114792
9 *539:60 *9480:A1 3.92854e-05
*RES
1 *9797:X *9480:A1 33.5643 
*END

*D_NET *646 0.00110647
*CONN
*I *9487:A1 I *D sky130_fd_sc_hd__a22o_1
*I *9486:B2 I *D sky130_fd_sc_hd__a22o_1
*I *9798:X O *D sky130_fd_sc_hd__dlygate4sd3_1
*CAP
1 *9487:A1 0.000113211
2 *9486:B2 1.42796e-05
3 *9798:X 0.000163133
4 *646:14 0.000290624
5 *9487:A1 *791:38 0.000146474
6 *646:14 *791:38 0
7 *1111:DIODE *646:14 1.17968e-05
8 *9486:A1 *9486:B2 5.33005e-05
9 *9486:A2 *9487:A1 7.83587e-05
10 *9659:D *9487:A1 0
11 *442:127 *646:14 0
12 *540:204 *9487:A1 9.10431e-06
13 *540:212 *9486:B2 5.52302e-05
14 *540:212 *9487:A1 1.69115e-05
15 *540:212 *646:14 4.1331e-06
16 *541:294 *9487:A1 7.15449e-05
17 *588:14 *646:14 7.83659e-05
*RES
1 *9798:X *646:14 16.6393 
2 *646:14 *9486:B2 14.3357 
3 *646:14 *9487:A1 16.6571 
*END

*D_NET *647 9.76607e-05
*CONN
*I *9496:B2 I *D sky130_fd_sc_hd__a22o_1
*I *9800:X O *D sky130_fd_sc_hd__dlygate4sd3_1
*CAP
1 *9496:B2 2.03947e-05
2 *9800:X 2.03947e-05
3 *540:181 *9496:B2 5.68713e-05
*RES
1 *9800:X *9496:B2 19.1357 
*END

*D_NET *648 0.00243835
*CONN
*I *9477:A1 I *D sky130_fd_sc_hd__a22o_1
*I *9801:X O *D sky130_fd_sc_hd__dlygate4sd3_1
*CAP
1 *9477:A1 0.000693919
2 *9801:X 0.000693919
3 *9477:A1 *9548:A1 5.33882e-05
4 *9477:A1 *9759:A 8.70495e-05
5 *9477:A1 *818:31 0.000167375
6 *9477:A1 *826:22 0.000136958
7 *9477:B1 *9477:A1 3.18676e-05
8 *9551:A *9477:A1 0.000183726
9 *9696:D *9477:A1 9.90431e-05
10 *9731:A *9477:A1 0.000126629
11 *537:40 *9477:A1 4.69993e-05
12 *539:82 *9477:A1 6.8551e-05
13 *585:51 *9477:A1 4.89264e-05
*RES
1 *9801:X *9477:A1 41.5821 
*END

*D_NET *649 0.00163729
*CONN
*I *9493:B2 I *D sky130_fd_sc_hd__a22o_1
*I *9802:X O *D sky130_fd_sc_hd__dlygate4sd3_1
*CAP
1 *9493:B2 0.000335733
2 *9802:X 0.000335733
3 *9493:B2 *9493:A1 9.87672e-05
4 *9493:B2 *9495:A1 4.9585e-05
5 *9493:B2 *789:16 0.000147474
6 *9493:A2 *9493:B2 1.39841e-05
7 *9803:A *9493:B2 0.000399144
8 *442:96 *9493:B2 2.56694e-05
9 *442:102 *9493:B2 2.1527e-05
10 *540:284 *9493:B2 0.00013495
11 *540:288 *9493:B2 7.47252e-05
*RES
1 *9802:X *9493:B2 36.6893 
*END

*D_NET *650 0.000317633
*CONN
*I *9665:D I *D sky130_fd_sc_hd__dfrtp_1
*I *9803:X O *D sky130_fd_sc_hd__dlygate4sd3_1
*CAP
1 *9665:D 0.000116293
2 *9803:X 0.000116293
3 *9665:CLK *9665:D 4.57445e-05
4 *589:72 *9665:D 7.43578e-06
5 *589:79 *9665:D 3.18676e-05
*RES
1 *9803:X *9665:D 29.7786 
*END

*D_NET *651 0.00111222
*CONN
*I *9469:B2 I *D sky130_fd_sc_hd__a22o_1
*I *9804:X O *D sky130_fd_sc_hd__dlygate4sd3_1
*CAP
1 *9469:B2 9.0828e-05
2 *9804:X 9.0828e-05
3 *9469:B2 *9469:A1 0.000582901
4 *9469:B2 *739:26 0.000202891
5 *1081:DIODE *9469:B2 0.000144773
*RES
1 *9804:X *9469:B2 24.0643 
*END

*D_NET *652 0.00157789
*CONN
*I *9643:D I *D sky130_fd_sc_hd__dfrtp_1
*I *9805:X O *D sky130_fd_sc_hd__dlygate4sd3_1
*CAP
1 *9643:D 0.000424903
2 *9805:X 0.000424903
3 *9643:D *9470:A1 0.000101464
4 *9643:D *9570:A0 0.000227526
5 *9643:D *9842:A 0.000148903
6 *9643:D *704:8 0
7 *9643:D *739:30 6.05161e-06
8 *9643:CLK *9643:D 0.000104227
9 *9644:D *9643:D 0.000139913
*RES
1 *9805:X *9643:D 36.2786 
*END

*D_NET *653 0.0106737
*CONN
*I *9754:A I *D sky130_fd_sc_hd__clkbuf_4
*I *9748:A I *D sky130_fd_sc_hd__buf_4
*I *9852:X O *D sky130_fd_sc_hd__buf_1
*CAP
1 *9754:A 8.31845e-05
2 *9748:A 0
3 *9852:X 0.00154566
4 *653:27 0.00244517
5 *653:12 0.00390764
6 *9754:A *9627:RESET_B 5.33005e-05
7 *9754:A *732:44 0.000150109
8 *653:12 *9711:D 0.000194299
9 *653:12 *675:16 0.000179656
10 *653:12 *708:16 0.00071434
11 *653:27 *1210:DIODE 0.000219064
12 *653:27 *1238:DIODE 0
13 *653:27 *9627:RESET_B 0.000214028
14 *653:27 *9711:D 5.52302e-05
15 *653:27 *743:10 5.71472e-05
16 *653:27 *744:12 9.33907e-05
17 *653:27 *744:333 5.74562e-05
18 *9229:A *653:27 4.12023e-05
19 *9346:A *653:27 0
20 *377:16 *653:27 0.000662794
*RES
1 *9852:X *653:12 46.3714 
2 *653:12 *9748:A 9.3 
3 *653:12 *653:27 47.5714 
4 *653:27 *9754:A 15.5679 
*END

*D_NET *654 0.0024224
*CONN
*I *9462:A2 I *D sky130_fd_sc_hd__a21o_1
*I *9806:X O *D sky130_fd_sc_hd__dlygate4sd3_1
*CAP
1 *9462:A2 0.000981062
2 *9806:X 0.000981062
3 *9462:A2 *9656:RESET_B 9.99012e-05
4 *9462:A2 *9657:RESET_B 9.76689e-05
5 *9462:A2 *9658:RESET_B 6.44345e-05
6 *9462:A2 *9831:A 0.000169373
7 *9658:D *9462:A2 2.89016e-05
*RES
1 *9806:X *9462:A2 31.6714 
*END

*D_NET *655 0.00154333
*CONN
*I *9328:A1 I *D sky130_fd_sc_hd__a21oi_1
*I *9807:X O *D sky130_fd_sc_hd__dlygate4sd3_1
*CAP
1 *9328:A1 0.000534914
2 *9807:X 0.000534914
3 *9328:A1 *9328:B1 6.05161e-06
4 *9328:A2 *9328:A1 0.00030926
5 *9335:A2 *9328:A1 9.25014e-06
6 *9584:CLK *9328:A1 1.21289e-05
7 *9584:D *9328:A1 0.000104306
8 *613:19 *9328:A1 3.25078e-05
*RES
1 *9807:X *9328:A1 34.9214 
*END

*D_NET *656 0.000574869
*CONN
*I *9284:A I *D sky130_fd_sc_hd__nor3_1
*I *9808:X O *D sky130_fd_sc_hd__dlygate4sd3_1
*CAP
1 *9284:A 0.000198239
2 *9808:X 0.000198239
3 *407:84 *9284:A 5.62995e-05
4 *587:42 *9284:A 0.000122091
*RES
1 *9808:X *9284:A 22.8321 
*END

*D_NET *657 0.000444475
*CONN
*I *9340:A I *D sky130_fd_sc_hd__nand2_1
*I *9809:X O *D sky130_fd_sc_hd__dlygate4sd3_1
*CAP
1 *9340:A 0.00013126
2 *9809:X 0.00013126
3 *9340:A *9171:A 0.000181956
*RES
1 *9809:X *9340:A 30.4929 
*END

*D_NET *658 0.000688476
*CONN
*I *9342:A2 I *D sky130_fd_sc_hd__a21boi_1
*I *9811:X O *D sky130_fd_sc_hd__dlygate4sd3_1
*CAP
1 *9342:A2 0.000151718
2 *9811:X 0.000151718
3 *9342:A2 *9171:A 4.59075e-05
4 *9342:A2 *9171:B 9.90367e-05
5 *9342:A2 *9340:B 9.90431e-05
6 *9342:A2 *9347:A1 1.24368e-05
7 *9172:C *9342:A2 4.38128e-05
8 *9590:D *9342:A2 2.95726e-05
9 *331:8 *9342:A2 5.52302e-05
*RES
1 *9811:X *9342:A2 22.4214 
*END

*D_NET *659 0.000246243
*CONN
*I *9456:B1 I *D sky130_fd_sc_hd__a21o_1
*I *9812:X O *D sky130_fd_sc_hd__dlygate4sd3_1
*CAP
1 *9456:B1 5.1084e-05
2 *9812:X 5.1084e-05
3 *9456:B1 *736:16 0.000144075
*RES
1 *9812:X *9456:B1 19.9571 
*END

*D_NET *660 0.00239077
*CONN
*I *9507:B2 I *D sky130_fd_sc_hd__a32o_1
*I *9813:X O *D sky130_fd_sc_hd__dlygate4sd3_1
*CAP
1 *9507:B2 0.000439352
2 *9813:X 0.000439352
3 *9507:B2 *9316:C 0.000121958
4 *9507:B2 *9503:B1 9.60875e-05
5 *9507:B2 *9507:A2 9.80173e-05
6 *9507:B2 *9511:B 5.52302e-05
7 *9507:B2 *783:10 9.25014e-06
8 *9507:B2 *783:14 0.000408182
9 *9507:B2 *785:29 0.000315165
10 *9506:A *9507:B2 0.000408182
*RES
1 *9813:X *9507:B2 40.1179 
*END

*D_NET *661 0.00023915
*CONN
*I *9675:D I *D sky130_fd_sc_hd__dfrtp_1
*I *9814:X O *D sky130_fd_sc_hd__dlygate4sd3_1
*CAP
1 *9675:D 4.32466e-05
2 *9814:X 4.32466e-05
3 *9675:D *787:27 5.01117e-05
4 *9507:A3 *9675:D 0.000102545
*RES
1 *9814:X *9675:D 28.9393 
*END

*D_NET *662 0.0049381
*CONN
*I *9504:A2 I *D sky130_fd_sc_hd__a31o_1
*I *9501:A1 I *D sky130_fd_sc_hd__a21o_1
*I *9815:X O *D sky130_fd_sc_hd__dlygate4sd3_1
*CAP
1 *9504:A2 0.000717732
2 *9501:A1 7.47983e-05
3 *9815:X 0.000288021
4 *662:10 0.00108055
5 *9501:A1 *9319:A 1.02504e-05
6 *9501:A1 *9514:B1 4.87953e-05
7 *9501:A1 *788:8 4.56437e-05
8 *9504:A2 *9233:B2 0
9 *9504:A2 *9503:B1 0.000265447
10 *9504:A2 *9514:B1 0.000523458
11 *9504:A2 *784:37 1.5424e-05
12 *9504:A2 *784:46 0.000314139
13 *662:10 *9221:B2 0
14 *662:10 *783:55 2.89016e-05
15 *662:10 *785:33 1.17968e-05
16 *662:10 *788:8 0.000153054
17 *9236:A2 *9501:A1 0
18 *9501:B1 *9501:A1 0
19 *9501:B1 *9504:A2 7.81878e-05
20 *9503:A1 *9504:A2 9.90431e-05
21 *9504:A1 *9504:A2 0.00018077
22 *9514:A2 *9504:A2 9.60939e-05
23 *9673:D *9504:A2 5.71472e-05
24 *9673:D *662:10 0
25 *9678:D *9504:A2 5.71472e-05
26 *9814:A *9504:A2 0.000312222
27 *538:12 *9501:A1 9.60939e-05
28 *538:16 *9504:A2 5.74499e-06
29 *538:59 *662:10 0
30 *539:10 *9501:A1 5.58941e-05
31 *539:10 *662:10 0.000311495
32 *539:16 *9501:A1 1.02504e-05
*RES
1 *9815:X *662:10 20.5321 
2 *662:10 *9501:A1 15.9071 
3 *662:10 *9504:A2 30.3714 
*END

*D_NET *663 0.00248706
*CONN
*I *9333:A I *D sky130_fd_sc_hd__inv_2
*I *9064:A I *D sky130_fd_sc_hd__nand2_1
*I *9336:A1 I *D sky130_fd_sc_hd__o21ba_1
*I *9816:X O *D sky130_fd_sc_hd__buf_1
*CAP
1 *9333:A 0
2 *9064:A 1.5947e-05
3 *9336:A1 0.000109254
4 *9816:X 0
5 *663:31 0.000286348
6 *663:4 0.000379655
7 *9064:A *9334:B1 0.000144773
8 *9336:A1 *9336:B1_N 0.000154177
9 *663:31 *9334:B1 0.000188586
10 *663:31 *730:16 7.17235e-05
11 *663:31 *730:18 0.000192489
12 *9063:A *9336:A1 1.02821e-05
13 *9063:C *9336:A1 1.98839e-05
14 *9816:A *9336:A1 5.52302e-05
15 *9818:A *663:31 0.000171148
16 *227:8 *9336:A1 8.86413e-05
17 *227:25 *9064:A 0.000144773
18 *227:25 *663:31 0.00030669
19 *612:8 *663:31 0
20 *612:37 *9336:A1 0.000103138
21 *612:37 *663:31 4.43256e-05
*RES
1 *9816:X *663:4 9.3 
2 *663:4 *9336:A1 13.5277 
3 *663:4 *663:31 17.6607 
4 *663:31 *9064:A 10.6571 
5 *663:31 *9333:A 9.3 
*END

*D_NET *664 0.0233235
*CONN
*I *9719:D I *D sky130_fd_sc_hd__dfrtp_1
*I *1214:DIODE I *D sky130_fd_sc_hd__diode_2
*I *9853:X O *D sky130_fd_sc_hd__clkbuf_2
*CAP
1 *9719:D 0.000203436
2 *1214:DIODE 0
3 *9853:X 0
4 *664:16 0.00438785
5 *664:14 0.00493287
6 *664:8 0.00459305
7 *664:6 0.0038446
8 *664:8 *9878:A 0.000109809
9 *664:8 *696:30 0
10 *664:8 *742:8 0.00325366
11 *664:14 *731:10 0.000202842
12 *664:14 *742:8 0.00170653
13 data_out[0] *664:8 2.26973e-05
14 data_out[30] *664:8 1.28585e-05
15 *9719:CLK *9719:D 5.33433e-05
16 *9860:A *664:14 0
17 *9861:A *664:8 0
*RES
1 *9853:X *664:6 13.8 
2 *664:6 *664:8 92.9732 
3 *664:8 *664:14 26.4554 
4 *664:14 *664:16 48.5893 
5 *664:16 *1214:DIODE 9.3 
6 *664:16 *9719:D 13.0321 
*END

*D_NET *665 0.000773222
*CONN
*I *9324:A I *D sky130_fd_sc_hd__nor2b_1
*I *9817:X O *D sky130_fd_sc_hd__dlygate4sd3_1
*CAP
1 *9324:A 0.000200691
2 *9817:X 0.000200691
3 *9324:A *9324:B_N 0.00010096
4 *9348:A *9324:A 4.15914e-05
5 *332:14 *9324:A 1.40034e-05
6 *332:20 *9324:A 0.000192435
7 *332:33 *9324:A 0
8 *445:6 *9324:A 2.28499e-05
*RES
1 *9817:X *9324:A 32.3679 
*END

*D_NET *666 0.000974922
*CONN
*I *9334:B1 I *D sky130_fd_sc_hd__a21oi_1
*I *9818:X O *D sky130_fd_sc_hd__dlygate4sd3_1
*CAP
1 *9334:B1 5.46847e-05
2 *9818:X 5.46847e-05
3 *9334:B1 *730:18 0.000451463
4 *9064:A *9334:B1 0.000144773
5 *9335:A2 *9334:B1 3.18676e-05
6 *227:25 *9334:B1 4.88637e-05
7 *663:31 *9334:B1 0.000188586
*RES
1 *9818:X *9334:B1 22.8321 
*END

*D_NET *667 0.000407618
*CONN
*I *9583:D I *D sky130_fd_sc_hd__dfrtp_1
*I *9819:X O *D sky130_fd_sc_hd__dlygate4sd3_1
*CAP
1 *9583:D 0.000183013
2 *9819:X 0.000183013
3 *9330:A1 *9583:D 0
4 *9583:CLK *9583:D 4.15914e-05
*RES
1 *9819:X *9583:D 30.2964 
*END

*D_NET *668 0.00252107
*CONN
*I *9168:C1 I *D sky130_fd_sc_hd__o2111a_1
*I *9820:X O *D sky130_fd_sc_hd__dlygate4sd3_1
*CAP
1 *9168:C1 0.000805733
2 *9820:X 0.000805733
3 *9168:C1 *9167:A1 1.74352e-05
4 *9168:C1 *9169:B 4.02462e-05
5 *9168:C1 *9430:A0 5.33433e-05
6 *9168:C1 *730:82 7.02611e-05
7 *9168:C1 *866:14 0.000102207
8 *9168:C1 *866:26 6.0741e-05
9 *9168:C1 *872:10 2.62714e-05
10 *9168:C1 *872:16 1.10866e-05
11 *9167:C1 *9168:C1 5.33005e-05
12 *9168:B1 *9168:C1 1.33343e-05
13 *9168:D1 *9168:C1 2.44318e-05
14 *9428:S *9168:C1 8.92599e-05
15 *9430:S *9168:C1 3.22692e-05
16 *324:12 *9168:C1 0.00012401
17 *518:48 *9168:C1 0.000191403
*RES
1 *9820:X *9168:C1 40.6714 
*END

*D_NET *669 0.00181644
*CONN
*I *9580:A1 I *D sky130_fd_sc_hd__o21a_1
*I *9822:X O *D sky130_fd_sc_hd__dlygate4sd3_1
*CAP
1 *9580:A1 0.000418796
2 *9822:X 0.000418796
3 *9580:A1 *9717:D 0.00010326
4 *1164:DIODE *9580:A1 0.000227532
5 *9580:A2 *9580:A1 0.00046149
6 *9637:D *9580:A1 4.15455e-05
7 *597:68 *9580:A1 8.15843e-05
8 *597:80 *9580:A1 6.34329e-05
*RES
1 *9822:X *9580:A1 36.8143 
*END

*D_NET *670 0.00053466
*CONN
*I *9717:D I *D sky130_fd_sc_hd__dfrtp_1
*I *9823:X O *D sky130_fd_sc_hd__dlygate4sd3_1
*CAP
1 *9717:D 0.000150698
2 *9823:X 0.000150698
3 *9717:D *740:67 5.52238e-05
4 *9580:A1 *9717:D 0.00010326
5 *597:80 *9717:D 7.47793e-05
*RES
1 *9823:X *9717:D 30.7071 
*END

*D_NET *671 0.000550462
*CONN
*I *9459:A0 I *D sky130_fd_sc_hd__mux2_1
*I *9824:X O *D sky130_fd_sc_hd__dlygate4sd3_1
*CAP
1 *9459:A0 5.25644e-05
2 *9824:X 5.25644e-05
3 *9459:A0 *9086:A 0.000222666
4 *9157:B *9459:A0 0.000167436
5 *319:24 *9459:A0 5.52302e-05
*RES
1 *9824:X *9459:A0 20.7786 
*END

*D_NET *672 0.00107541
*CONN
*I *9513:A1 I *D sky130_fd_sc_hd__a31o_1
*I *9825:X O *D sky130_fd_sc_hd__dlygate4sd3_1
*CAP
1 *9513:A1 0.000236909
2 *9825:X 0.000236909
3 *9513:A1 *9233:B2 0
4 *9513:A1 *9316:A 0.000177234
5 *9513:A1 *9677:D 0.00017309
6 *9513:A1 *863:54 6.58195e-05
7 *9676:CLK *9513:A1 7.71417e-05
8 *9678:CLK *9513:A1 1.17968e-05
9 *348:39 *9513:A1 0
10 *596:64 *9513:A1 9.65075e-05
*RES
1 *9825:X *9513:A1 34.4036 
*END

*D_NET *673 0.0004738
*CONN
*I *9677:D I *D sky130_fd_sc_hd__dfrtp_1
*I *9826:X O *D sky130_fd_sc_hd__dlygate4sd3_1
*CAP
1 *9677:D 0.000140716
2 *9826:X 0.000140716
3 *9677:D *9233:B2 0
4 *9513:A1 *9677:D 0.00017309
5 *348:39 *9677:D 0
6 *596:45 *9677:D 1.92789e-05
*RES
1 *9826:X *9677:D 30.3857 
*END

*D_NET *674 0.000870191
*CONN
*I *9457:A0 I *D sky130_fd_sc_hd__mux2_1
*I *9827:X O *D sky130_fd_sc_hd__dlygate4sd3_1
*CAP
1 *9457:A0 0.000139964
2 *9827:X 0.000139964
3 *9457:A0 *9457:S 0.000316894
4 *9457:A0 *9827:A 7.83659e-05
5 *235:12 *9457:A0 0.000137855
6 *267:10 *9457:A0 0
7 *319:14 *9457:A0 5.71472e-05
*RES
1 *9827:X *9457:A0 32.5107 
*END

*D_NET *675 0.01937
*CONN
*I *9711:D I *D sky130_fd_sc_hd__dfrtp_1
*I *1209:DIODE I *D sky130_fd_sc_hd__diode_2
*I *9854:X O *D sky130_fd_sc_hd__dlymetal6s2s_1
*CAP
1 *9711:D 0.00023514
2 *1209:DIODE 0
3 *9854:X 0.000363808
4 *675:16 0.000318513
5 *675:12 0.00860038
6 *675:10 0.00888082
7 *675:10 *9887:A 0
8 *675:12 *1179:DIODE 1.72894e-05
9 *675:12 *9344:A 0.0001399
10 *675:12 *781:14 8.66063e-05
11 *9339:A *675:12 2.44318e-05
12 *9344:B *675:12 4.88637e-05
13 *9345:A2 *675:12 2.15245e-05
14 *9589:D *675:12 9.60939e-05
15 *9711:CLK *9711:D 8.07313e-05
16 *9854:A *675:10 2.667e-05
17 *653:12 *9711:D 0.000194299
18 *653:12 *675:16 0.000179656
19 *653:27 *9711:D 5.52302e-05
*RES
1 *9854:X *675:10 25.1036 
2 *675:10 *675:12 131.143 
3 *675:12 *675:16 6.75 
4 *675:16 *1209:DIODE 13.8 
5 *675:16 *9711:D 19.2643 
*END

*D_NET *676 0.00101684
*CONN
*I *9349:C1 I *D sky130_fd_sc_hd__o211a_1
*I *9828:X O *D sky130_fd_sc_hd__dlygate4sd3_1
*CAP
1 *9349:C1 0.000235759
2 *9828:X 0.000235759
3 *9349:C1 *709:14 0.000308592
4 *9349:C1 *749:52 5.33334e-05
5 *9349:C1 *864:10 0
6 *9348:A *9349:C1 4.53031e-05
7 *9349:B1 *9349:C1 5.58941e-05
8 *332:14 *9349:C1 5.33005e-05
9 *445:19 *9349:C1 2.89016e-05
*RES
1 *9828:X *9349:C1 33.1536 
*END

*D_NET *677 0.000575609
*CONN
*I *9326:A I *D sky130_fd_sc_hd__or3_1
*I *9829:X O *D sky130_fd_sc_hd__dlygate4sd3_1
*CAP
1 *9326:A 0.000161038
2 *9829:X 0.000161038
3 *9284:C *9326:A 0
4 *9285:B *9326:A 3.34295e-05
5 *9314:A *9326:A 3.6551e-05
6 *9326:B *9326:A 3.76337e-05
7 *9326:C *9326:A 1.24368e-05
8 *9424:A *9326:A 0
9 *413:12 *9326:A 0.000133482
*RES
1 *9829:X *9326:A 30.8143 
*END

*D_NET *678 0.00113584
*CONN
*I *9546:A0 I *D sky130_fd_sc_hd__mux2_1
*I *9830:X O *D sky130_fd_sc_hd__dlygate4sd3_1
*CAP
1 *9546:A0 0.000450894
2 *9830:X 0.000450894
3 *9546:A0 *9648:RESET_B 1.20135e-05
4 *9546:A0 *9830:A 2.89114e-05
5 *9546:A0 *738:28 2.15245e-05
6 *9546:A0 *738:42 2.3076e-05
7 *9546:A0 *775:14 4.25716e-05
8 *9648:CLK *9546:A0 5.33334e-05
9 *594:10 *9546:A0 5.26184e-05
*RES
1 *9830:X *9546:A0 34.1893 
*END

*D_NET *679 0.0014495
*CONN
*I *9533:A0 I *D sky130_fd_sc_hd__mux2_1
*I *9831:X O *D sky130_fd_sc_hd__dlygate4sd3_1
*CAP
1 *9533:A0 0.00021087
2 *9831:X 0.00021087
3 *9533:A0 *9533:A1 0.000659775
4 *9640:D *9533:A0 0.000317864
5 *616:14 *9533:A0 5.01213e-05
*RES
1 *9831:X *9533:A0 35.225 
*END

*D_NET *680 0.00069284
*CONN
*I *9529:A0 I *D sky130_fd_sc_hd__mux2_1
*I *9833:X O *D sky130_fd_sc_hd__dlygate4sd3_1
*CAP
1 *9529:A0 0.000232217
2 *9833:X 0.000232217
3 *9529:A0 *9531:A0 5.94896e-06
4 *9529:A0 *9531:A1 1.24368e-05
5 *9531:S *9529:A0 1.97756e-05
6 *299:16 *9529:A0 6.05161e-06
7 *299:27 *9529:A0 4.94362e-05
8 *348:161 *9529:A0 0.000119385
9 *348:171 *9529:A0 1.53729e-05
*RES
1 *9833:X *9529:A0 31.3143 
*END

*D_NET *681 0.000408838
*CONN
*I *9525:A0 I *D sky130_fd_sc_hd__mux2_1
*I *9834:X O *D sky130_fd_sc_hd__dlygate4sd3_1
*CAP
1 *9525:A0 6.06571e-05
2 *9834:X 6.06571e-05
3 *9525:A0 *740:137 5.04705e-05
4 *9525:A0 *794:74 0.00018372
5 *1147:DIODE *9525:A0 5.33334e-05
*RES
1 *9834:X *9525:A0 20.7786 
*END

*D_NET *682 0.00100435
*CONN
*I *9543:A0 I *D sky130_fd_sc_hd__mux2_1
*I *9835:X O *D sky130_fd_sc_hd__dlygate4sd3_1
*CAP
1 *9543:A0 0.000286254
2 *9835:X 0.000286254
3 *9543:A0 *9067:B 0
4 *9543:A0 *9489:A1 6.05161e-06
5 *9543:A0 *9543:A1 2.89016e-05
6 *442:60 *9543:A0 9.90367e-05
7 *442:67 *9543:A0 0.000297849
8 *541:168 *9543:A0 0
*RES
1 *9835:X *9543:A0 33.3679 
*END

*D_NET *683 0.000528511
*CONN
*I *9558:A0 I *D sky130_fd_sc_hd__mux2_1
*I *9836:X O *D sky130_fd_sc_hd__dlygate4sd3_1
*CAP
1 *9558:A0 5.66171e-05
2 *9836:X 5.66171e-05
3 *369:201 *9558:A0 0.000144951
4 *566:24 *9558:A0 0.000270326
*RES
1 *9836:X *9558:A0 21.1893 
*END

*D_NET *684 0.00128769
*CONN
*I *9531:A0 I *D sky130_fd_sc_hd__mux2_1
*I *9837:X O *D sky130_fd_sc_hd__dlygate4sd3_1
*CAP
1 *9531:A0 0.000342202
2 *9837:X 0.000342202
3 *9531:A0 *789:16 9.85583e-05
4 *9531:A0 *792:10 0.000265018
5 *9529:A0 *9531:A0 5.94896e-06
6 *9531:S *9531:A0 9.60875e-05
7 *299:16 *9531:A0 3.4879e-05
8 *442:144 *9531:A0 2.44318e-05
9 *625:10 *9531:A0 7.83587e-05
*RES
1 *9837:X *9531:A0 34.0643 
*END

*D_NET *685 0.000835071
*CONN
*I *9539:A0 I *D sky130_fd_sc_hd__mux2_1
*I *9838:X O *D sky130_fd_sc_hd__dlygate4sd3_1
*CAP
1 *9539:A0 0.000260065
2 *9838:X 0.000260065
3 *9539:A0 *9661:RESET_B 7.83659e-05
4 *9539:A0 *9838:A 0
5 *9661:D *9539:A0 9.47456e-05
6 *540:79 *9539:A0 0.00014183
7 *598:86 *9539:A0 0
8 *598:105 *9539:A0 0
*RES
1 *9838:X *9539:A0 32.4214 
*END

*D_NET *686 0.00915709
*CONN
*I *9713:D I *D sky130_fd_sc_hd__dfstp_1
*I *9855:X O *D sky130_fd_sc_hd__buf_1
*CAP
1 *9713:D 0.000126345
2 *9855:X 0.000127508
3 *686:12 0.00435674
4 *686:10 0.0043579
5 *9713:CLK *9713:D 0.000188586
*RES
1 *9855:X *686:10 20.55 
2 *686:10 *686:12 64.6071 
3 *686:12 *9713:D 12.2107 
*END

*D_NET *687 0.000402183
*CONN
*I *9541:A0 I *D sky130_fd_sc_hd__mux2_1
*I *9839:X O *D sky130_fd_sc_hd__dlygate4sd3_1
*CAP
1 *9541:A0 8.15984e-05
2 *9839:X 8.15984e-05
3 *9541:A0 *9541:A1 0.000185643
4 *1155:DIODE *9541:A0 6.05161e-06
5 *9541:S *9541:A0 4.72917e-05
*RES
1 *9839:X *9541:A0 20.7786 
*END

*D_NET *688 0.000988122
*CONN
*I *9523:A0 I *D sky130_fd_sc_hd__mux2_1
*I *9840:X O *D sky130_fd_sc_hd__dlygate4sd3_1
*CAP
1 *9523:A0 0.000287211
2 *9840:X 0.000287211
3 *9523:A0 *9067:B 0
4 *9523:A0 *9523:A1 0.000102207
5 *9538:A *9523:A0 2.56694e-05
6 *442:374 *9523:A0 1.55885e-05
7 *541:91 *9523:A0 0.000270236
*RES
1 *9840:X *9523:A0 33.2429 
*END

*D_NET *689 0.000322669
*CONN
*I *9527:A0 I *D sky130_fd_sc_hd__mux2_1
*I *9841:X O *D sky130_fd_sc_hd__dlygate4sd3_1
*CAP
1 *9527:A0 7.48937e-05
2 *9841:X 7.48937e-05
3 *9527:A0 *794:12 7.83659e-05
4 *442:374 *9527:A0 3.92854e-05
5 *541:83 *9527:A0 5.52302e-05
*RES
1 *9841:X *9527:A0 29.1714 
*END

*D_NET *690 0.00197017
*CONN
*I *9574:A0 I *D sky130_fd_sc_hd__mux2_1
*I *9842:X O *D sky130_fd_sc_hd__dlygate4sd3_1
*CAP
1 *9574:A0 0.000529775
2 *9842:X 0.000529775
3 *9574:A0 *9570:A0 0.000225609
4 *9571:A *9574:A0 1.40415e-05
5 *9574:S *9574:A0 0.000125445
6 *9705:CLK *9574:A0 0.000405614
7 *566:208 *9574:A0 0.000139907
*RES
1 *9842:X *9574:A0 28.3143 
*END

*D_NET *691 0.0011961
*CONN
*I *9548:A0 I *D sky130_fd_sc_hd__mux2_1
*I *9844:X O *D sky130_fd_sc_hd__dlygate4sd3_1
*CAP
1 *9548:A0 0.000249501
2 *9844:X 0.000249501
3 *9548:A0 *9548:A1 0.000236783
4 *9548:A0 *738:84 4.52937e-05
5 *9476:A1 *9548:A0 2.44318e-05
6 *9548:S *9548:A0 0.000140933
7 *9709:CLK *9548:A0 0.000177941
8 *539:90 *9548:A0 0
9 *539:292 *9548:A0 7.17136e-05
10 *585:51 *9548:A0 0
*RES
1 *9844:X *9548:A0 34.2607 
*END

*D_NET *692 0.00131874
*CONN
*I *9517:A0 I *D sky130_fd_sc_hd__mux2_1
*I *9845:X O *D sky130_fd_sc_hd__dlygate4sd3_1
*CAP
1 *9517:A0 0.000423133
2 *9845:X 0.000423133
3 *9517:A0 *9515:A1 9.77274e-05
4 *9517:A0 *9517:A1 5.71472e-05
5 *9517:A0 *9665:RESET_B 0
6 *9517:A0 *9845:A 0
7 *9517:A0 *789:10 0.000317602
8 *9517:A0 *790:10 0
*RES
1 *9845:X *9517:A0 35.6714 
*END

*D_NET *693 0.000390953
*CONN
*I *9519:A0 I *D sky130_fd_sc_hd__mux2_1
*I *9846:X O *D sky130_fd_sc_hd__dlygate4sd3_1
*CAP
1 *9519:A0 0.00010337
2 *9846:X 0.00010337
3 *9519:A0 *746:118 0.000123295
4 *9519:A0 *789:16 4.16383e-05
5 *9519:S *9519:A0 1.92789e-05
*RES
1 *9846:X *9519:A0 29.7786 
*END

*D_NET *694 0.000619962
*CONN
*I *9554:A0 I *D sky130_fd_sc_hd__mux2_1
*I *9847:X O *D sky130_fd_sc_hd__dlygate4sd3_1
*CAP
1 *9554:A0 0.000192125
2 *9847:X 0.000192125
3 *9554:A0 *9554:A1 0.000100625
4 *9554:A0 *821:25 3.92854e-05
5 *9554:A0 *863:44 7.83659e-05
6 *566:328 *9554:A0 1.74352e-05
*RES
1 *9847:X *9554:A0 30.8143 
*END

*D_NET *695 0.0118135
*CONN
*I *9715:D I *D sky130_fd_sc_hd__dfrtp_1
*I *9743:DIODE I *D sky130_fd_sc_hd__diode_2
*I *9856:X O *D sky130_fd_sc_hd__buf_1
*CAP
1 *9715:D 8.29669e-05
2 *9743:DIODE 0
3 *9856:X 0.000582242
4 *695:25 0.003949
5 *695:21 0.0049319
6 *695:12 0.0016481
7 *695:12 *699:14 0.000271898
8 *695:12 *700:12 0
9 *9235:A *695:21 0.000187464
10 *381:22 *695:21 0.000159952
11 *385:14 *695:12 0
12 *394:8 *9715:D 0
*RES
1 *9856:X *695:12 29.05 
2 *695:12 *9743:DIODE 9.3 
3 *695:12 *695:21 19.4375 
4 *695:21 *695:25 49.5982 
5 *695:25 *9715:D 15.1393 
*END

*D_NET *696 0.0348398
*CONN
*I *9869:A I *D sky130_fd_sc_hd__clkbuf_4
*I *1242:DIODE I *D sky130_fd_sc_hd__diode_2
*I *9190:X O *D sky130_fd_sc_hd__o21a_2
*CAP
1 *9869:A 0.000105746
2 *1242:DIODE 3.72884e-05
3 *9190:X 0.00188638
4 *696:32 0.000143035
5 *696:30 0.00918027
6 *696:28 0.0102031
7 *696:24 0.00414797
8 *696:16 0.00501148
9 *696:16 *9161:A 9.90431e-05
10 *696:16 *9595:RESET_B 4.58194e-05
11 *696:16 *9622:RESET_B 9.1677e-05
12 *696:16 *744:188 0.000114577
13 *696:16 *894:8 9.90431e-05
14 *696:16 *895:36 0.00021075
15 *696:16 *895:47 1.74352e-05
16 *696:24 *9599:RESET_B 5.67638e-05
17 *696:30 *9873:A 0.000297559
18 *696:30 *9883:A 0.00131641
19 *696:30 *9889:A 0.000153047
20 *696:30 *9902:A 8.15939e-05
21 *696:30 *720:10 0
22 *696:30 *732:110 0
23 *696:30 *742:8 0
24 data_out[13] *696:30 0.000221665
25 *937:DIODE *696:16 0.000113083
26 *9261:A *696:30 0.000169905
27 *9263:A *696:30 2.34204e-05
28 *9273:A *696:30 3.01126e-05
29 *9298:A *696:16 2.56172e-05
30 *9599:CLK *696:16 1.77347e-05
31 *9599:D *696:16 0.000427701
32 *9599:D *696:24 9.31893e-05
33 *9600:D *696:16 0.000134978
34 *9622:CLK *696:16 5.33433e-05
35 *9622:D *696:16 4.70063e-05
36 *584:53 *696:16 0.000183035
37 *664:8 *696:30 0
*RES
1 *9190:X *696:16 44.1214 
2 *696:16 *696:24 46.9911 
3 *696:24 *696:28 16.3304 
4 *696:28 *696:30 179.232 
5 *696:30 *696:32 4.5 
6 *696:32 *1242:DIODE 9.83571 
7 *696:32 *9869:A 11.0679 
*END

*D_NET *697 0.00165233
*CONN
*I *9870:A I *D sky130_fd_sc_hd__clkbuf_4
*I *9229:X O *D sky130_fd_sc_hd__clkbuf_1
*CAP
1 *9870:A 0.000728066
2 *9229:X 0.000728066
3 *9870:A *709:14 0
4 *9870:A *751:12 0.000142856
5 data_out[10] *9870:A 5.33433e-05
*RES
1 *9229:X *9870:A 38.3857 
*END

*D_NET *698 0.0294828
*CONN
*I *9184:D I *D sky130_fd_sc_hd__and4bb_1
*I *9183:B I *D sky130_fd_sc_hd__and3_1
*I *922:DIODE I *D sky130_fd_sc_hd__diode_2
*I *9175:B I *D sky130_fd_sc_hd__nor2_1
*I *913:DIODE I *D sky130_fd_sc_hd__diode_2
*I *934:DIODE I *D sky130_fd_sc_hd__diode_2
*I *930:DIODE I *D sky130_fd_sc_hd__diode_2
*I *9177:A_N I *D sky130_fd_sc_hd__and4bb_1
*I *9182:B I *D sky130_fd_sc_hd__and3b_2
*I *928:DIODE I *D sky130_fd_sc_hd__diode_2
*I *9180:A_N I *D sky130_fd_sc_hd__and4b_1
*I *9191:A_N I *D sky130_fd_sc_hd__and4b_1
*I *938:DIODE I *D sky130_fd_sc_hd__diode_2
*I *916:DIODE I *D sky130_fd_sc_hd__diode_2
*I *9857:X O *D sky130_fd_sc_hd__buf_2
*CAP
1 *9184:D 4.33048e-05
2 *9183:B 0
3 *922:DIODE 3.49364e-05
4 *9175:B 0
5 *913:DIODE 0.000125556
6 *934:DIODE 0
7 *930:DIODE 6.82283e-05
8 *9177:A_N 0
9 *9182:B 0
10 *928:DIODE 0.000208666
11 *9180:A_N 0
12 *9191:A_N 3.25519e-05
13 *938:DIODE 0
14 *916:DIODE 0
15 *9857:X 0.00206245
16 *698:126 0.000267043
17 *698:116 0.000400042
18 *698:100 0.000125556
19 *698:89 0.000143859
20 *698:87 0.000289023
21 *698:83 0.000169511
22 *698:58 0.000425597
23 *698:49 0.000321738
24 *698:43 0.000612608
25 *698:27 0.000771369
26 *698:18 0.00106659
27 *698:10 0.00801702
28 *698:8 0.00932466
29 *922:DIODE *9180:C 0.000136958
30 *930:DIODE *732:44 7.71321e-05
31 *9184:D *9177:C 3.89847e-05
32 *9191:A_N *9206:B2 0
33 *698:18 *9206:B2 0
34 *698:18 *9568:A1 0.000125363
35 *698:18 *9705:RESET_B 0.000248625
36 *698:18 *9898:A 0
37 *698:18 *858:21 0
38 *698:18 *859:31 0.000158752
39 *698:18 *862:12 0.000153047
40 *698:27 *9206:B2 6.47905e-05
41 *698:43 *9177:C 0.000117553
42 *698:49 *732:44 0.000212745
43 *698:58 *899:28 3.34024e-05
44 *698:83 *9177:C 7.02611e-05
45 *698:87 *709:71 4.93928e-05
46 *698:87 *732:44 1.01075e-05
47 *698:89 *709:71 6.84519e-05
48 *927:DIODE *928:DIODE 0.000260586
49 *929:DIODE *930:DIODE 7.58571e-05
50 *929:DIODE *698:89 2.05938e-05
51 *1083:DIODE *698:10 1.72894e-05
52 *9184:A_N *9184:D 7.48927e-06
53 *9185:A *930:DIODE 5.83304e-05
54 *9185:A *698:87 6.98302e-05
55 *9185:A *698:89 0.000187026
56 *9191:B *698:43 2.14757e-05
57 *9191:C *698:43 1.02936e-05
58 *9193:B1 *698:49 0.000106214
59 *9196:A3 *922:DIODE 0.000138881
60 *9196:A3 *698:116 0.000221641
61 *9196:A3 *698:126 0.000284564
62 *9205:A2 *698:58 9.90367e-05
63 *9206:A2 *698:27 1.72894e-05
64 *9206:B1 *698:27 1.38323e-05
65 *9206:C1 *9191:A_N 9.99853e-05
66 *9206:C1 *698:27 6.84905e-05
67 *9210:A2 *698:18 2.14757e-05
68 *9210:A2 *698:27 0.000268396
69 *334:14 *698:126 4.79183e-05
70 *335:22 *698:126 7.6644e-05
71 *337:22 *928:DIODE 0.000315564
72 *341:21 *698:58 9.41642e-05
73 *344:61 *928:DIODE 5.30637e-06
74 *344:303 *928:DIODE 0.0001096
75 *348:210 *928:DIODE 0.000154333
76 *362:10 *698:18 0
77 *619:38 *698:43 6.86621e-05
78 *619:51 *698:43 0.000200993
79 *619:64 *698:126 7.95888e-05
80 *619:68 *698:126 1.86129e-05
81 *619:97 *698:126 0.00012401
82 *619:127 *698:126 4.29471e-05
*RES
1 *9857:X *698:8 33.4696 
2 *698:8 *698:10 111.223 
3 *698:10 *698:18 26.3571 
4 *698:18 *916:DIODE 9.3 
5 *698:18 *698:27 5.89286 
6 *698:27 *938:DIODE 9.3 
7 *698:27 *9191:A_N 10.675 
8 *698:27 *698:43 7.51786 
9 *698:43 *698:49 11.8571 
10 *698:49 *9180:A_N 9.3 
11 *698:49 *698:58 3.21429 
12 *698:58 *928:DIODE 25.3714 
13 *698:58 *9182:B 9.3 
14 *698:43 *9177:A_N 9.3 
15 *698:43 *698:83 1.35714 
16 *698:83 *698:87 5.83929 
17 *698:87 *698:89 2.55357 
18 *698:89 *930:DIODE 16.3536 
19 *698:89 *698:100 4.5 
20 *698:100 *934:DIODE 9.3 
21 *698:100 *913:DIODE 10.6571 
22 *698:87 *698:116 6.67857 
23 *698:116 *698:126 15.0536 
24 *698:126 *9175:B 9.3 
25 *698:126 *922:DIODE 10.6571 
26 *698:116 *9183:B 9.3 
27 *698:83 *9184:D 10.2643 
*END

*D_NET *699 0.0143455
*CONN
*I *1243:DIODE I *D sky130_fd_sc_hd__diode_2
*I *9871:A I *D sky130_fd_sc_hd__clkbuf_4
*I *9232:X O *D sky130_fd_sc_hd__buf_1
*CAP
1 *1243:DIODE 0
2 *9871:A 0.000143344
3 *9232:X 0
4 *699:16 0.000143344
5 *699:14 0.00264
6 *699:6 0.00595505
7 *699:4 0.00331505
8 *699:14 *700:12 0.00187685
9 *695:12 *699:14 0.000271898
*RES
1 *9232:X *699:4 9.3 
2 *699:4 *699:6 50.8482 
3 *699:6 *699:14 49.2946 
4 *699:14 *699:16 4.5 
5 *699:16 *9871:A 11.4786 
6 *699:16 *1243:DIODE 9.3 
*END

*D_NET *700 0.00977161
*CONN
*I *9872:A I *D sky130_fd_sc_hd__clkbuf_4
*I *9235:X O *D sky130_fd_sc_hd__buf_1
*CAP
1 *9872:A 0.000119879
2 *9235:X 0.000226863
3 *700:12 0.00364493
4 *700:10 0.00375191
5 data_out[11] *700:12 0
6 data_out[29] *700:12 0
7 *9188:B *700:12 0.000151187
8 *9849:A *700:12 0
9 *9856:A *700:12 0
10 *9864:A *700:12 0
11 *695:12 *700:12 0
12 *699:14 *700:12 0.00187685
*RES
1 *9235:X *700:10 17.8268 
2 *700:10 *700:12 73.2589 
3 *700:12 *9872:A 15.5679 
*END

*D_NET *701 0.000932938
*CONN
*I *9873:A I *D sky130_fd_sc_hd__clkbuf_4
*I *9238:X O *D sky130_fd_sc_hd__clkbuf_1
*CAP
1 *9873:A 0.000243957
2 *9238:X 0.000243957
3 *9873:A *732:110 0.00011191
4 data_out[13] *9873:A 3.55552e-05
5 *696:30 *9873:A 0.000297559
*RES
1 *9238:X *9873:A 33.5464 
*END

*D_NET *702 0.000864107
*CONN
*I *9874:A I *D sky130_fd_sc_hd__clkbuf_4
*I *9241:X O *D sky130_fd_sc_hd__clkbuf_1
*CAP
1 *9874:A 0.000432053
2 *9241:X 0.000432053
*RES
1 *9241:X *9874:A 34.1536 
*END

*D_NET *703 0.00794804
*CONN
*I *9875:A I *D sky130_fd_sc_hd__clkbuf_4
*I *9244:X O *D sky130_fd_sc_hd__buf_1
*CAP
1 *9875:A 0.000241323
2 *9244:X 0
3 *703:8 0.00369451
4 *703:6 0.00345319
5 *9875:A *709:6 0.000419821
6 data_out[15] *9875:A 0.000129595
7 *9244:A *703:8 9.60337e-06
*RES
1 *9244:X *703:6 13.8 
2 *703:6 *703:8 62.6607 
3 *703:8 *9875:A 20.9071 
*END

*D_NET *704 0.00708221
*CONN
*I *9876:A I *D sky130_fd_sc_hd__clkbuf_4
*I *9247:X O *D sky130_fd_sc_hd__buf_1
*CAP
1 *9876:A 3.30898e-05
2 *9247:X 0
3 *704:8 0.00258052
4 *704:6 0.00254743
5 *9876:A *751:12 0.000274288
6 *704:8 *1235:DIODE 8.06427e-05
7 *704:8 *9467:A1 0
8 *704:8 *9562:A1 0
9 *704:8 *9775:A 6.65398e-05
10 *704:8 *9842:A 0
11 *704:8 *739:26 0
12 *704:8 *739:32 2.49484e-05
13 *704:8 *739:167 0
14 *704:8 *849:35 3.5707e-05
15 *1083:DIODE *704:8 6.26559e-05
16 *9467:A2 *704:8 0
17 *9565:A *704:8 0.000507057
18 *9643:D *704:8 0
19 *9703:D *704:8 7.83659e-05
20 *9805:A *704:8 0.000503913
21 *537:97 *704:8 0
22 *537:99 *704:8 0
23 *584:234 *704:8 1.08359e-05
24 *593:10 *704:8 0
25 *593:12 *704:8 0
26 *593:22 *704:8 0
27 *619:10 *9876:A 0.000276211
28 *623:14 *704:8 0
*RES
1 *9247:X *704:6 13.8 
2 *704:6 *704:8 50.5179 
3 *704:8 *9876:A 16.3893 
*END

*D_NET *705 0.00943052
*CONN
*I *9877:A I *D sky130_fd_sc_hd__clkbuf_4
*I *9251:X O *D sky130_fd_sc_hd__buf_1
*CAP
1 *9877:A 0.00110668
2 *9251:X 0.000267269
3 *705:14 0.00331064
4 *705:10 0.00247123
5 *9877:A *9890:A 5.71472e-05
6 *9877:A *709:6 2.89114e-05
7 *705:14 *1039:DIODE 2.37761e-05
8 *705:14 *9268:A 0.000484578
9 *705:14 *9303:A 0.000163917
10 *705:14 *732:14 0
11 *705:14 *745:31 0
12 *705:14 *745:41 0
13 *705:14 *895:58 2.37761e-05
14 *705:14 *896:25 0.000134444
15 *9304:A *705:10 0.000183713
16 *9307:A *705:10 3.97677e-05
17 *9605:D *705:14 0
18 *322:251 *705:10 9.90367e-05
19 *446:12 *705:14 0.00103564
20 *584:98 *705:14 0
*RES
1 *9251:X *705:10 18.4607 
2 *705:10 *705:14 45.9018 
3 *705:14 *9877:A 34.4875 
*END

*D_NET *706 0.00847623
*CONN
*I *9878:A I *D sky130_fd_sc_hd__clkbuf_4
*I *9253:X O *D sky130_fd_sc_hd__buf_1
*CAP
1 *9878:A 0.00128256
2 *9253:X 0.00189666
3 *706:10 0.00317922
4 *1004:DIODE *706:10 0.000142856
5 *9853:A *9878:A 0
6 *631:10 *9878:A 0
7 *631:12 *9878:A 0.000338008
8 *631:12 *706:10 0.00152712
9 *664:8 *9878:A 0.000109809
*RES
1 *9253:X *706:10 47.8625 
2 *706:10 *9878:A 37.6661 
*END

*D_NET *707 0.00456473
*CONN
*I *9879:A I *D sky130_fd_sc_hd__clkbuf_4
*I *9255:X O *D sky130_fd_sc_hd__clkbuf_1
*CAP
1 *9879:A 0.00180399
2 *9255:X 0.000259205
3 *707:10 0.00206319
4 *9879:A *9888:A 0.000232399
5 *9879:A *717:12 4.97621e-05
6 *707:10 *9895:A 0
7 data_out[27] *9879:A 0.00010096
8 uo_out[4] *9879:A 5.52302e-05
*RES
1 *9255:X *707:10 22.9786 
2 *707:10 *9879:A 38.5857 
*END

*D_NET *708 0.0301251
*CONN
*I *1244:DIODE I *D sky130_fd_sc_hd__diode_2
*I *9880:A I *D sky130_fd_sc_hd__clkbuf_4
*I *9196:X O *D sky130_fd_sc_hd__o31a_2
*CAP
1 *1244:DIODE 0
2 *9880:A 0.000143859
3 *9196:X 0.000102948
4 *708:16 0.00558037
5 *708:14 0.00707525
6 *708:10 0.00174169
7 *9880:A *751:10 9.24825e-05
8 *708:14 *9894:A 0
9 *708:16 *751:10 0.00029981
10 *708:16 *751:12 0.0127241
11 *939:DIODE *708:14 0
12 *348:230 *708:14 0.000126439
13 *368:10 *708:14 0
14 *619:16 *708:14 0.00140757
15 *619:38 *708:10 3.4323e-06
16 *619:38 *708:14 0.000112777
17 *653:12 *708:16 0.00071434
*RES
1 *9196:X *708:10 15.0232 
2 *708:10 *708:14 42.7232 
3 *708:14 *708:16 126.625 
4 *708:16 *9880:A 12.2107 
5 *708:16 *1244:DIODE 9.3 
*END

*D_NET *709 0.0242618
*CONN
*I *915:DIODE I *D sky130_fd_sc_hd__diode_2
*I *9176:B I *D sky130_fd_sc_hd__and3b_2
*I *9179:B I *D sky130_fd_sc_hd__nor2_1
*I *9177:C I *D sky130_fd_sc_hd__and4bb_1
*I *9184:C I *D sky130_fd_sc_hd__and4bb_1
*I *933:DIODE I *D sky130_fd_sc_hd__diode_2
*I *918:DIODE I *D sky130_fd_sc_hd__diode_2
*I *921:DIODE I *D sky130_fd_sc_hd__diode_2
*I *9858:X O *D sky130_fd_sc_hd__clkbuf_2
*CAP
1 *915:DIODE 0
2 *9176:B 0
3 *9179:B 1.49187e-05
4 *9177:C 0.000145973
5 *9184:C 0
6 *933:DIODE 0
7 *918:DIODE 0.000170712
8 *921:DIODE 0.000164215
9 *9858:X 0
10 *709:71 0.0005234
11 *709:61 0.000513694
12 *709:45 0.00027879
13 *709:39 0.00029509
14 *709:35 0.000581867
15 *709:27 0.000561416
16 *709:14 0.0020936
17 *709:6 0.00707297
18 *709:4 0.00518879
19 *921:DIODE *9436:A1 2.89016e-05
20 *9177:C *9177:B_N 0.000227532
21 *9177:C *720:58 0
22 *709:6 *9890:A 0.0012273
23 *709:6 *751:12 0.000315158
24 *709:14 *9347:B1 0.000243052
25 *709:14 *719:14 2.72083e-05
26 *709:35 *720:18 0.000170385
27 *709:35 *720:26 0.000224583
28 *709:61 *9193:A1 4.72818e-05
29 *709:61 *720:30 0.000135028
30 *709:71 *9193:A1 3.29753e-05
31 data_out[15] *709:6 1.32552e-05
32 data_out[21] *709:6 9.68208e-05
33 data_out[2] *709:6 1.40415e-05
34 *929:DIODE *709:71 3.17148e-05
35 *931:DIODE *709:39 0.00012501
36 *9170:A *709:14 2.88424e-05
37 *9170:A *709:27 2.34204e-05
38 *9183:C *9179:B 1.04722e-05
39 *9183:C *709:71 4.40835e-05
40 *9184:A_N *9177:C 5.04841e-06
41 *9184:D *9177:C 3.89847e-05
42 *9191:C *9177:C 9.80173e-05
43 *9194:A *709:45 0
44 *9194:B *709:35 0.000183726
45 *9194:C *709:35 1.32552e-05
46 *9322:A *709:39 2.26424e-05
47 *9322:A *709:45 4.46186e-06
48 *9323:B *921:DIODE 8.43535e-06
49 *9325:B1 *709:14 9.4724e-05
50 *9348:A *709:14 0
51 *9348:C *709:14 0.000271098
52 *9349:C1 *709:14 0.000308592
53 *9870:A *709:14 0
54 *9875:A *709:6 0.000419821
55 *9877:A *709:6 2.89114e-05
56 *335:22 *709:35 8.17186e-05
57 *335:22 *709:71 4.27437e-05
58 *335:32 *9179:B 0
59 *335:32 *709:71 1.24368e-05
60 *377:16 *709:39 0.000161411
61 *377:16 *709:45 0.000101545
62 *443:23 *921:DIODE 7.77652e-05
63 *445:23 *709:14 0.000262956
64 *601:14 *709:14 0.000440363
65 *601:22 *709:14 2.46999e-05
66 *601:49 *709:14 7.6644e-05
67 *601:66 *709:14 8.41494e-05
68 *601:66 *709:27 3.25078e-05
69 *616:34 *709:35 0.000121425
70 *619:62 *9177:C 5.97398e-05
71 *619:68 *709:71 0.000205852
72 *698:43 *9177:C 0.000117553
73 *698:83 *9177:C 7.02611e-05
74 *698:87 *709:71 4.93928e-05
75 *698:89 *709:71 6.84519e-05
*RES
1 *9858:X *709:4 9.3 
2 *709:4 *709:6 90.4821 
3 *709:6 *709:14 44.4464 
4 *709:14 *921:DIODE 15.9786 
5 *709:14 *709:27 5.53571 
6 *709:27 *709:35 8.91071 
7 *709:35 *709:39 6.75 
8 *709:39 *709:45 6.375 
9 *709:45 *918:DIODE 11.0679 
10 *709:45 *933:DIODE 9.3 
11 *709:39 *709:61 6.67857 
12 *709:61 *709:71 15.1786 
13 *709:71 *9184:C 9.3 
14 *709:71 *9177:C 13.9607 
15 *709:61 *9179:B 9.72857 
16 *709:35 *9176:B 9.3 
17 *709:27 *915:DIODE 9.3 
*END

*D_NET *710 0.00642232
*CONN
*I *9881:A I *D sky130_fd_sc_hd__clkbuf_4
*I *9257:X O *D sky130_fd_sc_hd__buf_1
*CAP
1 *9881:A 1.86116e-05
2 *9257:X 0
3 *710:8 0.00306735
4 *710:6 0.00304874
5 *9881:A *751:12 0.00014285
6 *9265:A *710:8 0
7 *9549:A *710:8 0
8 *619:10 *9881:A 0.000144773
*RES
1 *9257:X *710:6 13.8 
2 *710:6 *710:8 55.375 
3 *710:8 *9881:A 15.1571 
*END

*D_NET *711 0.00689985
*CONN
*I *9882:A I *D sky130_fd_sc_hd__clkbuf_4
*I *9259:X O *D sky130_fd_sc_hd__buf_1
*CAP
1 *9882:A 0
2 *9259:X 0.000611329
3 *711:10 0.0028386
4 *711:8 0.00344992
*RES
1 *9259:X *711:8 20.9071 
2 *711:8 *711:10 52.0357 
3 *711:10 *9882:A 13.8 
*END

*D_NET *712 0.0028684
*CONN
*I *9883:A I *D sky130_fd_sc_hd__clkbuf_4
*I *9261:X O *D sky130_fd_sc_hd__clkbuf_1
*CAP
1 *9883:A 0.000526678
2 *9261:X 0.000526678
3 *9883:A *732:110 0.000498631
4 *696:30 *9883:A 0.00131641
*RES
1 *9261:X *9883:A 46.2964 
*END

*D_NET *713 0.00172144
*CONN
*I *9884:A I *D sky130_fd_sc_hd__buf_2
*I *9263:X O *D sky130_fd_sc_hd__clkbuf_1
*CAP
1 *9884:A 0.000691512
2 *9263:X 0.000691512
3 *9884:A *716:10 0.000338417
4 *9884:A *720:10 0
*RES
1 *9263:X *9884:A 41.6714 
*END

*D_NET *714 0.0101459
*CONN
*I *1245:DIODE I *D sky130_fd_sc_hd__diode_2
*I *9885:A I *D sky130_fd_sc_hd__clkbuf_4
*I *9265:X O *D sky130_fd_sc_hd__buf_1
*CAP
1 *1245:DIODE 0
2 *9885:A 0.000209952
3 *9265:X 2.23854e-05
4 *714:14 0.000989023
5 *714:8 0.00484063
6 *714:6 0.00408395
*RES
1 *9265:X *714:6 9.72857 
2 *714:6 *714:8 67.8929 
3 *714:8 *714:14 22.7857 
4 *714:14 *9885:A 11.9071 
5 *714:14 *1245:DIODE 9.3 
*END

*D_NET *715 0.0126594
*CONN
*I *9886:A I *D sky130_fd_sc_hd__clkbuf_4
*I *9267:X O *D sky130_fd_sc_hd__buf_1
*CAP
1 *9886:A 0.000322559
2 *9267:X 0
3 *715:6 0.00632968
4 *715:4 0.00600712
*RES
1 *9267:X *715:4 9.3 
2 *715:4 *715:6 69.9464 
3 *715:6 *9886:A 24.1929 
*END

*D_NET *716 0.00601737
*CONN
*I *9887:A I *D sky130_fd_sc_hd__buf_2
*I *9269:X O *D sky130_fd_sc_hd__buf_1
*CAP
1 *9887:A 0.00109077
2 *9269:X 0.0014294
3 *716:10 0.00252017
4 *716:10 *720:10 0
5 *716:10 *732:110 0.000448416
6 data_out[23] *716:10 0
7 *9263:A *716:10 0.000190199
8 *9884:A *716:10 0.000338417
9 *675:10 *9887:A 0
*RES
1 *9269:X *716:10 47.6661 
2 *716:10 *9887:A 33.9518 
*END

*D_NET *717 0.0181719
*CONN
*I *9888:A I *D sky130_fd_sc_hd__clkbuf_4
*I *1246:DIODE I *D sky130_fd_sc_hd__diode_2
*I *9271:X O *D sky130_fd_sc_hd__dlymetal6s2s_1
*CAP
1 *9888:A 0.000124373
2 *1246:DIODE 0
3 *9271:X 0
4 *717:12 0.000256025
5 *717:8 0.00882051
6 *717:6 0.00868885
7 *9879:A *9888:A 0.000232399
8 *9879:A *717:12 4.97621e-05
*RES
1 *9271:X *717:6 13.8 
2 *717:6 *717:8 159.5 
3 *717:8 *717:12 6.26786 
4 *717:12 *1246:DIODE 9.3 
5 *717:12 *9888:A 12.5143 
*END

*D_NET *718 0.000618513
*CONN
*I *9889:A I *D sky130_fd_sc_hd__clkbuf_4
*I *9273:X O *D sky130_fd_sc_hd__clkbuf_1
*CAP
1 *9889:A 0.000198501
2 *9273:X 0.000198501
3 *9889:A *732:110 2.91887e-05
4 *9273:A *9889:A 3.92757e-05
5 *696:30 *9889:A 0.000153047
*RES
1 *9273:X *9889:A 31.725 
*END

*D_NET *719 0.0110902
*CONN
*I *9890:A I *D sky130_fd_sc_hd__clkbuf_4
*I *9200:X O *D sky130_fd_sc_hd__o21a_1
*CAP
1 *9890:A 0.00152706
2 *9200:X 0.000122127
3 *719:14 0.00359512
4 *719:8 0.00219019
5 *9890:A *751:12 0.000105163
6 *719:8 *899:28 1.99198e-05
7 *719:14 *9172:A 0.000146474
8 *719:14 *751:24 0
9 *9170:A *719:14 0.000168146
10 *9197:B *719:8 0.000144773
11 *9325:A2 *719:14 0.000565489
12 *9341:B *719:14 0.000190682
13 *9345:A2 *719:14 0.000123295
14 *9348:C *719:14 0.000282661
15 *9588:D *719:14 0
16 *9589:D *719:14 0
17 *9877:A *9890:A 5.71472e-05
18 *331:18 *719:14 0
19 *455:10 *719:14 0.000180039
20 *601:22 *719:14 0.000266099
21 *601:66 *719:14 0
22 *616:34 *719:14 0.000151333
23 *709:6 *9890:A 0.0012273
24 *709:14 *719:14 2.72083e-05
*RES
1 *9200:X *719:8 15.5679 
2 *719:8 *719:14 48.1607 
3 *719:14 *9890:A 40.6393 
*END

*D_NET *720 0.0244643
*CONN
*I *914:DIODE I *D sky130_fd_sc_hd__diode_2
*I *917:DIODE I *D sky130_fd_sc_hd__diode_2
*I *932:DIODE I *D sky130_fd_sc_hd__diode_2
*I *9179:A I *D sky130_fd_sc_hd__nor2_1
*I *9184:B_N I *D sky130_fd_sc_hd__and4bb_1
*I *9177:B_N I *D sky130_fd_sc_hd__and4bb_1
*I *9176:A_N I *D sky130_fd_sc_hd__and3b_2
*I *920:DIODE I *D sky130_fd_sc_hd__diode_2
*I *9859:X O *D sky130_fd_sc_hd__clkbuf_2
*CAP
1 *914:DIODE 0
2 *917:DIODE 0
3 *932:DIODE 0
4 *9179:A 0
5 *9184:B_N 0
6 *9177:B_N 0.000155265
7 *9176:A_N 0
8 *920:DIODE 0.0002937
9 *9859:X 0
10 *720:58 0.000208245
11 *720:49 0.000178844
12 *720:32 0.000419564
13 *720:30 0.000206696
14 *720:26 0.000353408
15 *720:18 0.000243021
16 *720:16 0.00219381
17 *720:12 0.00703507
18 *720:10 0.00691918
19 *720:6 0.00198161
20 *920:DIODE *9193:A1 0.00031588
21 *720:10 *731:14 7.83659e-05
22 *720:10 *742:8 0.000751679
23 *720:16 *1047:DIODE 0.00014285
24 *720:30 *9193:A1 5.33005e-05
25 *720:49 *9193:A1 3.17148e-05
26 data_out[28] *720:10 0
27 *929:DIODE *920:DIODE 0
28 *9170:A *720:16 8.46829e-05
29 *9170:A *720:18 5.33005e-05
30 *9177:C *9177:B_N 0.000227532
31 *9177:C *720:58 0
32 *9183:C *920:DIODE 2.8266e-06
33 *9183:C *720:49 1.87097e-05
34 *9184:A_N *9177:B_N 4.70048e-05
35 *9194:A *720:26 0
36 *9263:A *720:10 0
37 *9322:C *720:30 0.000140913
38 *9323:B *720:30 0
39 *9438:S *720:26 1.76039e-05
40 *9439:A *920:DIODE 4.70048e-05
41 *9859:A *720:10 0
42 *9884:A *720:10 0
43 *334:14 *720:49 1.98839e-05
44 *334:14 *720:58 5.52238e-05
45 *335:22 *720:49 2.59355e-05
46 *335:22 *720:58 2.88056e-05
47 *338:25 *720:49 0.000145618
48 *342:16 *720:30 0.000163408
49 *377:16 *720:49 8.78961e-05
50 *404:79 *720:26 0.000145753
51 *443:6 *720:30 5.33334e-05
52 *443:23 *720:30 5.46335e-05
53 *616:34 *720:16 5.52302e-05
54 *616:34 *720:18 0.000358971
55 *616:34 *720:26 0.000224583
56 *619:62 *9177:B_N 0.000313235
57 *619:68 *920:DIODE 0
58 *696:30 *720:10 0
59 *709:35 *720:18 0.000170385
60 *709:35 *720:26 0.000224583
61 *709:61 *720:30 0.000135028
62 *716:10 *720:10 0
*RES
1 *9859:X *720:6 13.8 
2 *720:6 *720:10 45.9107 
3 *720:10 *720:12 57.4196 
4 *720:12 *720:16 32.7946 
5 *720:16 *720:18 3.41071 
6 *720:18 *720:26 13.125 
7 *720:26 *720:30 5.89286 
8 *720:30 *720:32 4.5 
9 *720:32 *920:DIODE 19.2286 
10 *720:32 *720:49 7.89286 
11 *720:49 *9176:A_N 9.3 
12 *720:49 *720:58 1.375 
13 *720:58 *9177:B_N 13.5321 
14 *720:58 *9184:B_N 9.3 
15 *720:30 *9179:A 9.3 
16 *720:26 *932:DIODE 9.3 
17 *720:18 *917:DIODE 9.3 
18 *720:16 *914:DIODE 9.3 
*END

*D_NET *721 0.0376048
*CONN
*I *9891:A I *D sky130_fd_sc_hd__clkbuf_4
*I *1247:DIODE I *D sky130_fd_sc_hd__diode_2
*I *9204:X O *D sky130_fd_sc_hd__o21a_2
*CAP
1 *9891:A 0.000162181
2 *1247:DIODE 0
3 *9204:X 0.00735877
4 *721:18 0.000162181
5 *721:16 0.0101487
6 *721:14 0.0175075
7 *721:14 *732:62 0
8 *721:14 *792:49 7.69776e-06
9 *721:14 *895:120 0.00203276
10 *9625:CLK *721:14 9.59532e-06
11 *347:78 *721:14 0.000111763
12 *369:290 *721:14 0
13 *611:34 *721:14 0.000103646
*RES
1 *9204:X *721:14 41.4828 
2 *721:14 *721:16 186.062 
3 *721:16 *721:18 4.5 
4 *721:18 *1247:DIODE 9.3 
5 *721:18 *9891:A 12.1036 
*END

*D_NET *722 0.0012284
*CONN
*I *9892:A I *D sky130_fd_sc_hd__clkbuf_4
*I *9208:X O *D sky130_fd_sc_hd__clkbuf_1
*CAP
1 *9892:A 0.000295137
2 *9208:X 0.000295137
3 *9892:A *751:12 0.000318101
4 *619:10 *9892:A 0.000320024
*RES
1 *9208:X *9892:A 34.975 
*END

*D_NET *723 0.0247595
*CONN
*I *9742:DIODE I *D sky130_fd_sc_hd__diode_2
*I *9893:A I *D sky130_fd_sc_hd__clkbuf_4
*I *9212:X O *D sky130_fd_sc_hd__clkbuf_2
*CAP
1 *9742:DIODE 0
2 *9893:A 0.000471429
3 *9212:X 0.00136935
4 *723:12 0.0100656
5 *723:10 0.00959421
6 *723:8 0.00136935
7 *9893:A *751:10 6.72945e-05
8 *723:8 *9711:RESET_B 0.000676441
9 *723:8 *9804:A 7.6644e-05
10 *723:8 *739:16 3.53786e-05
11 *723:8 *739:92 0.000364974
12 *723:8 *815:10 0.000462863
13 *723:8 *861:8 0.000104974
14 *9862:A *9893:A 0.00010096
*RES
1 *9212:X *723:8 45.8 
2 *723:8 *723:10 4.5 
3 *723:10 *723:12 112.25 
4 *723:12 *9893:A 26.3536 
5 *723:12 *9742:DIODE 9.3 
*END

*D_NET *724 0.00149922
*CONN
*I *9894:A I *D sky130_fd_sc_hd__clkbuf_4
*I *9216:X O *D sky130_fd_sc_hd__clkbuf_1
*CAP
1 *9894:A 0.000557398
2 *9216:X 0.000557398
3 *9894:A *751:12 0.000230482
4 data_out[6] *9894:A 5.33433e-05
5 *9216:A *9894:A 0.000100595
6 *708:14 *9894:A 0
*RES
1 *9216:X *9894:A 37.1536 
*END

*D_NET *725 0.000705371
*CONN
*I *9895:A I *D sky130_fd_sc_hd__clkbuf_4
*I *9220:X O *D sky130_fd_sc_hd__clkbuf_1
*CAP
1 *9895:A 0.000352686
2 *9220:X 0.000352686
3 *707:10 *9895:A 0
*RES
1 *9220:X *9895:A 33.7429 
*END

*D_NET *726 0.000924573
*CONN
*I *9896:A I *D sky130_fd_sc_hd__clkbuf_4
*I *9223:X O *D sky130_fd_sc_hd__clkbuf_1
*CAP
1 *9896:A 0.000434771
2 *9223:X 0.000434771
3 data_out[8] *9896:A 5.50313e-05
*RES
1 *9223:X *9896:A 35.3857 
*END

*D_NET *727 0.00984985
*CONN
*I *9897:A I *D sky130_fd_sc_hd__clkbuf_4
*I *9226:X O *D sky130_fd_sc_hd__buf_1
*CAP
1 *9897:A 0.00167442
2 *9226:X 0
3 *727:8 0.0047928
4 *727:4 0.00311838
5 data_out[9] *9897:A 0
6 *1027:DIODE *727:8 5.71472e-05
7 *9271:A *727:8 0.000207098
*RES
1 *9226:X *727:4 9.3 
2 *727:4 *727:8 49.6339 
3 *727:8 *9897:A 46.5054 
*END

*D_NET *728 0.00571442
*CONN
*I *9206:B2 I *D sky130_fd_sc_hd__a221o_1
*I *9898:A I *D sky130_fd_sc_hd__clkbuf_4
*I *9174:X O *D sky130_fd_sc_hd__buf_1
*CAP
1 *9206:B2 0.000647778
2 *9898:A 0.00157906
3 *9174:X 0.000371717
4 *728:8 0.00259855
5 *9206:B2 *9568:A1 0
6 *9206:B2 *862:27 0.000189674
7 *9191:A_N *9206:B2 0
8 *9206:A2 *9206:B2 2.72897e-05
9 *9206:B1 *9206:B2 3.68633e-05
10 *9206:C1 *9206:B2 0
11 *335:40 *9206:B2 0.000198698
12 *344:10 *9206:B2 0
13 *344:19 *9206:B2 0
14 *619:16 *9206:B2 0
15 *619:16 *9898:A 0
16 *698:18 *9206:B2 0
17 *698:18 *9898:A 0
18 *698:27 *9206:B2 6.47905e-05
*RES
1 *9174:X *728:8 18.0321 
2 *728:8 *9898:A 42.4607 
3 *728:8 *9206:B2 27.925 
*END

*D_NET *729 0.0352712
*CONN
*I *9899:A I *D sky130_fd_sc_hd__clkbuf_4
*I *1248:DIODE I *D sky130_fd_sc_hd__diode_2
*I *925:DIODE I *D sky130_fd_sc_hd__diode_2
*I *9181:A1 I *D sky130_fd_sc_hd__a221o_1
*I *9587:Q O *D sky130_fd_sc_hd__dfrtp_4
*CAP
1 *9899:A 0.000189213
2 *1248:DIODE 0
3 *925:DIODE 0
4 *9181:A1 0.000233409
5 *9587:Q 3.82418e-05
6 *729:62 0.000189213
7 *729:60 0.0104489
8 *729:58 0.0104489
9 *729:56 0.0020058
10 *729:24 0.00171583
11 *729:6 0.00352646
12 *9181:A1 *9199:B2 5.71472e-05
13 *729:24 *9195:B2 0.000193505
14 *729:24 *9199:B2 0.000840795
15 *729:24 *9203:B2 0.000212591
16 *729:24 *9587:D 0.000360053
17 *729:24 *9587:RESET_B 5.92731e-05
18 *729:24 *9605:RESET_B 4.0552e-05
19 *729:24 *744:175 7.83587e-05
20 *729:24 *866:38 6.89995e-05
21 *729:24 *872:16 0.000265453
22 *729:24 *899:6 4.04061e-05
23 *729:24 *899:28 9.79901e-06
24 *729:56 *9258:A 9.90431e-05
25 *729:56 *9268:A 0.000170964
26 *729:56 *9605:RESET_B 5.10038e-05
27 *729:56 *745:49 9.25014e-06
28 *729:56 *894:22 0
29 *729:60 *883:16 0
30 uo_out[1] *9899:A 5.62995e-05
31 *9165:B1 *729:24 0.00026353
32 *9166:B1 *729:24 1.54142e-05
33 *9167:A2 *729:24 0.000114457
34 *9167:B2 *729:24 3.01445e-05
35 *9167:C1 *729:24 5.74499e-06
36 *9181:A2 *9181:A1 0.000133343
37 *9190:A1 *9181:A1 2.95641e-05
38 *9201:B *9181:A1 0.00010096
39 *9268:B *729:56 4.43256e-05
40 *9430:S *729:24 0.000175892
41 *9431:A *729:24 7.6644e-05
42 *9435:A *9181:A1 0.000110905
43 *9435:A *729:24 5.71472e-05
44 *9605:CLK *729:56 7.77751e-05
45 *9605:D *729:56 3.65178e-05
46 *335:101 *9181:A1 6.20855e-06
47 *337:165 *9181:A1 1.34652e-05
48 *369:297 *729:56 3.97978e-05
49 *369:304 *729:56 2.279e-05
50 *369:321 *729:56 4.03657e-05
51 *369:334 *729:56 4.78014e-05
52 *377:16 *9181:A1 0.000269627
53 *401:8 *729:56 0.00214941
*RES
1 *9587:Q *729:6 10.0321 
2 *729:6 *729:24 36.4464 
3 *729:24 *9181:A1 24.6214 
4 *729:24 *925:DIODE 9.3 
5 *729:6 *729:56 48.9464 
6 *729:56 *729:58 4.5 
7 *729:58 *729:60 191.071 
8 *729:60 *729:62 4.5 
9 *729:62 *1248:DIODE 9.3 
10 *729:62 *9899:A 12.925 
*END

*D_NET *730 0.04052
*CONN
*I *1249:DIODE I *D sky130_fd_sc_hd__diode_2
*I *9900:A I *D sky130_fd_sc_hd__clkbuf_4
*I *1052:DIODE I *D sky130_fd_sc_hd__diode_2
*I *1051:DIODE I *D sky130_fd_sc_hd__diode_2
*I *9336:B1_N I *D sky130_fd_sc_hd__o21ba_1
*I *1050:DIODE I *D sky130_fd_sc_hd__diode_2
*I *1049:DIODE I *D sky130_fd_sc_hd__diode_2
*I *9329:B1 I *D sky130_fd_sc_hd__a21oi_1
*I *9065:A I *D sky130_fd_sc_hd__nor2_1
*I *900:DIODE I *D sky130_fd_sc_hd__diode_2
*I *947:DIODE I *D sky130_fd_sc_hd__diode_2
*I *9199:A1 I *D sky130_fd_sc_hd__a221o_1
*I *923:DIODE I *D sky130_fd_sc_hd__diode_2
*I *9180:C I *D sky130_fd_sc_hd__and4b_1
*I *9328:B1 I *D sky130_fd_sc_hd__a21oi_1
*I *9335:C1 I *D sky130_fd_sc_hd__a211oi_1
*I *9721:Q O *D sky130_fd_sc_hd__dfrtp_4
*CAP
1 *1249:DIODE 0.000110591
2 *9900:A 0
3 *1052:DIODE 0
4 *1051:DIODE 0
5 *9336:B1_N 0.00013461
6 *1050:DIODE 0
7 *1049:DIODE 0
8 *9329:B1 2.54331e-05
9 *9065:A 4.26984e-05
10 *900:DIODE 0
11 *947:DIODE 0
12 *9199:A1 0
13 *923:DIODE 9.46778e-05
14 *9180:C 0.0003126
15 *9328:B1 0.000181404
16 *9335:C1 3.78386e-05
17 *9721:Q 0
18 *730:204 0.000110591
19 *730:202 0.0064501
20 *730:200 0.00702103
21 *730:167 0.000258365
22 *730:100 0.000407278
23 *730:98 0.000195654
24 *730:90 0.000506929
25 *730:82 0.00192736
26 *730:72 0.00287535
27 *730:66 0.00145505
28 *730:60 0.000460915
29 *730:41 0.000513909
30 *730:37 0.000183523
31 *730:35 0.000234058
32 *730:22 0.000350097
33 *730:18 0.000818236
34 *730:16 0.000911912
35 *730:14 0.00133936
36 *730:4 0.00181415
37 *923:DIODE *9199:B2 5.97719e-05
38 *9180:C *9199:B2 4.46186e-06
39 *9180:C *899:28 0.000647985
40 *730:14 *9721:RESET_B 5.52302e-05
41 *730:14 *749:176 0.000447622
42 *730:60 *746:81 0.000143804
43 *730:60 *746:92 5.83233e-05
44 *730:66 *746:81 0.000273387
45 *730:72 *801:10 0.000108737
46 *730:72 *801:18 8.19347e-05
47 *730:72 *808:12 7.83659e-05
48 *730:82 *9162:A 5.52302e-05
49 *730:82 *9357:B1_N 6.26802e-05
50 *730:82 *9587:D 0.000178847
51 *730:82 *735:21 0
52 *730:82 *735:41 0
53 *730:82 *735:72 0
54 *730:82 *736:36 0
55 *730:82 *751:71 0.00048663
56 *730:82 *757:74 0.000556393
57 *730:82 *801:18 0.0015291
58 *730:82 *872:10 0
59 *730:90 *9169:B 0.00022117
60 *730:200 *9721:RESET_B 4.22627e-05
61 *922:DIODE *9180:C 0.000136958
62 *931:DIODE *9180:C 2.61337e-05
63 *948:DIODE *730:90 0.000142856
64 *1062:DIODE *730:90 2.44318e-05
65 *1062:DIODE *730:98 5.17614e-05
66 *1223:DIODE *730:72 0
67 *9063:A *9336:B1_N 0.000347809
68 *9063:C *9336:B1_N 3.57366e-05
69 *9168:B1 *730:90 9.69119e-06
70 *9168:C1 *730:82 7.02611e-05
71 *9175:A *9180:C 5.33005e-05
72 *9180:D *9180:C 8.7131e-05
73 *9186:A1 *923:DIODE 5.52238e-05
74 *9187:C1 *730:98 0.000104298
75 *9196:A3 *9180:C 0.000156024
76 *9199:A2 *730:98 7.13226e-06
77 *9200:A2 *730:90 4.18895e-05
78 *9200:A2 *730:98 0.000365426
79 *9328:A1 *9328:B1 6.05161e-06
80 *9329:A1 *730:35 7.06479e-05
81 *9329:A1 *730:37 1.3701e-05
82 *9330:A2 *730:41 3.66196e-05
83 *9330:A2 *730:60 0.000202553
84 *9330:A2 *730:66 2.96741e-05
85 *9330:B1 *9329:B1 7.43578e-06
86 *9330:B1 *9335:C1 1.52978e-05
87 *9330:B1 *730:35 0.0001399
88 *9331:A *730:66 5.33005e-05
89 *9332:A *730:66 2.15245e-05
90 *9334:A1 *730:22 0
91 *9334:B1 *730:18 0.000451463
92 *9335:A1 *9336:B1_N 0
93 *9335:A2 *730:18 1.39841e-05
94 *9336:A1 *9336:B1_N 0.000154177
95 *9336:A2 *9336:B1_N 0
96 *9356:B1 *730:82 2.56694e-05
97 *9428:S *730:82 0.000192269
98 *9583:CLK *730:72 0
99 *9584:CLK *9328:B1 0.00010096
100 *9584:CLK *730:60 0
101 *9593:CLK *730:82 4.5435e-05
102 *9596:D *730:82 7.83587e-05
103 *9617:CLK *730:72 0
104 *9618:CLK *730:72 0
105 *9618:CLK *730:82 0
106 *9618:D *730:72 0
107 *9622:CLK *730:82 0.000101198
108 *9718:D *730:66 3.17163e-05
109 *9718:D *730:72 7.6644e-05
110 *9721:CLK *730:200 0.000346525
111 *9766:A *730:14 0.000185643
112 *9818:A *9336:B1_N 4.73656e-05
113 *9818:A *730:167 0.000148189
114 *98:10 *730:66 7.48356e-05
115 *228:22 *9335:C1 1.02504e-05
116 *321:133 *730:82 0
117 *335:86 *923:DIODE 1.02504e-05
118 *335:86 *9180:C 0.000195555
119 *335:101 *923:DIODE 0.000113038
120 *338:29 *9180:C 3.06084e-05
121 *341:27 *730:98 6.10501e-05
122 *341:36 *730:98 2.59538e-05
123 *377:16 *9180:C 0
124 *518:31 *730:90 0.000525388
125 *518:48 *730:82 0.000146474
126 *584:365 *730:72 0
127 *590:37 *730:72 0
128 *590:39 *730:72 0
129 *591:12 *730:72 0
130 *600:25 *730:82 9.11631e-05
131 *600:92 *730:82 0.000469144
132 *612:37 *9336:B1_N 5.33201e-05
133 *612:37 *730:167 9.15804e-05
134 *612:54 *730:18 1.57414e-05
135 *612:60 *9335:C1 6.8646e-06
136 *612:60 *730:18 7.77751e-05
137 *612:60 *730:22 5.07157e-05
138 *612:60 *730:41 1.78353e-05
139 *613:19 *9335:C1 0
140 *614:8 *9336:B1_N 1.02504e-05
141 *616:20 *730:90 0
142 *663:31 *730:16 7.17235e-05
143 *663:31 *730:18 0.000192489
*RES
1 *9721:Q *730:4 9.3 
2 *730:4 *730:14 32.1429 
3 *730:14 *730:16 1.35714 
4 *730:16 *730:18 9.98214 
5 *730:18 *730:22 7.05357 
6 *730:22 *9335:C1 14.5321 
7 *730:22 *730:35 7.08929 
8 *730:35 *730:37 1.03571 
9 *730:37 *730:41 6.59821 
10 *730:41 *9328:B1 16.3804 
11 *730:41 *730:60 5.79464 
12 *730:60 *730:66 9.32143 
13 *730:66 *730:72 28.8839 
14 *730:72 *730:82 46.7946 
15 *730:82 *730:90 17.3214 
16 *730:90 *730:98 5.92857 
17 *730:98 *730:100 4.5 
18 *730:100 *9180:C 22.6393 
19 *730:100 *923:DIODE 15.9786 
20 *730:98 *9199:A1 9.3 
21 *730:90 *947:DIODE 9.3 
22 *730:66 *900:DIODE 9.3 
23 *730:60 *9065:A 14.3357 
24 *730:37 *9329:B1 9.83571 
25 *730:35 *1049:DIODE 9.3 
26 *730:18 *1050:DIODE 9.3 
27 *730:16 *730:167 7.35714 
28 *730:167 *9336:B1_N 18.8 
29 *730:167 *1051:DIODE 13.8 
30 *730:14 *1052:DIODE 9.3 
31 *730:4 *730:200 12.75 
32 *730:200 *730:202 118.518 
33 *730:202 *730:204 4.5 
34 *730:204 *9900:A 9.3 
35 *730:204 *1249:DIODE 11.0679 
*END

*D_NET *731 0.0333601
*CONN
*I *1058:DIODE I *D sky130_fd_sc_hd__diode_2
*I *1066:DIODE I *D sky130_fd_sc_hd__diode_2
*I *9436:A1 I *D sky130_fd_sc_hd__mux2_1
*I *9425:A I *D sky130_fd_sc_hd__inv_2
*I *1054:DIODE I *D sky130_fd_sc_hd__diode_2
*I *9353:A1 I *D sky130_fd_sc_hd__o22a_1
*I *9860:X O *D sky130_fd_sc_hd__buf_2
*CAP
1 *1058:DIODE 0
2 *1066:DIODE 0
3 *9436:A1 0.000375302
4 *9425:A 2.25583e-05
5 *1054:DIODE 0
6 *9353:A1 0.000405394
7 *9860:X 0.000948051
8 *731:83 0.00185644
9 *731:66 0.00153648
10 *731:64 0.00112479
11 *731:34 0.00115789
12 *731:28 0.00361118
13 *731:16 0.0060852
14 *731:14 0.00520343
15 *731:10 0.00183296
16 *9353:A1 *735:72 0.00021993
17 *9353:A1 *747:28 0.000255329
18 *9425:A *895:12 5.71472e-05
19 *9436:A1 *9323:A 2.59355e-05
20 *731:10 *742:8 0.000938885
21 *731:14 *742:8 0.00201773
22 *731:16 *9608:RESET_B 9.23759e-05
23 *731:16 *882:20 1.02936e-05
24 *731:16 *883:16 4.37999e-05
25 *731:28 *9603:RESET_B 0.000446603
26 *731:28 *9606:RESET_B 5.23624e-05
27 *731:28 *748:21 1.39726e-05
28 *731:28 *748:67 3.55881e-05
29 *731:28 *881:12 9.60939e-05
30 *731:28 *881:27 0.000198273
31 *731:28 *882:20 3.53079e-05
32 *731:34 *9603:RESET_B 5.33005e-05
33 *731:34 *735:72 0.000261858
34 *731:34 *749:124 3.57366e-05
35 *731:64 *9159:A 0.000127452
36 *731:64 *9603:RESET_B 0.000318824
37 *731:64 *742:22 0
38 *731:64 *749:90 0
39 *731:64 *749:120 0
40 *731:64 *895:12 0.000186662
41 *731:66 *895:12 0.00010096
42 *731:83 *9624:RESET_B 0
43 *731:83 *9820:A 0
44 *731:83 *742:61 0
45 *731:83 *865:12 4.57538e-05
46 *731:83 *899:28 0.000210292
47 data_out[22] *731:14 4.29654e-05
48 user_interrupt *731:10 7.68486e-05
49 *921:DIODE *9436:A1 2.89016e-05
50 *9170:A *9436:A1 4.05256e-05
51 *9250:B *731:64 0
52 *9251:A *731:64 0
53 *9285:A *731:64 0
54 *9302:A *731:64 6.91215e-06
55 *9323:B *9436:A1 0.000105848
56 *9325:A2 *9436:A1 0.000142856
57 *9353:B2 *9353:A1 3.59524e-05
58 *9368:B *731:28 0.000482607
59 *9370:A *731:16 2.14658e-05
60 *9370:A *731:28 0.00010096
61 *9371:A *731:28 0.000226507
62 *9374:A *731:16 3.06878e-06
63 *9423:A *731:28 1.21258e-05
64 *9429:A *731:83 0.000103334
65 *9437:A *9436:A1 6.07526e-05
66 *9437:A *731:83 9.99644e-06
67 *9588:D *9436:A1 0.00014285
68 *9601:D *731:64 7.72916e-05
69 *9606:CLK *731:28 2.72859e-05
70 *9606:D *731:28 2.02508e-05
71 *9608:D *731:16 0.000351156
72 *9860:A *731:10 0
73 *321:59 *9353:A1 4.71935e-06
74 *321:76 *9353:A1 3.5403e-05
75 *321:76 *731:34 9.74783e-05
76 *322:10 *731:64 0.000301854
77 *322:16 *731:64 0
78 *322:338 *731:64 7.4826e-05
79 *347:109 *731:64 0
80 *413:10 *731:28 9.90431e-05
81 *414:24 *731:64 5.01876e-05
82 *584:61 *731:83 0
83 *599:8 *731:83 0
84 *599:10 *731:83 0
85 *599:14 *731:83 0
86 *616:14 *9353:A1 0.000254732
87 *664:14 *731:10 0.000202842
88 *720:10 *731:14 7.83659e-05
*RES
1 *9860:X *731:10 38.7196 
2 *731:10 *731:14 29.8482 
3 *731:14 *731:16 50.6429 
4 *731:16 *731:28 29.2679 
5 *731:28 *731:34 10.625 
6 *731:34 *9353:A1 25.6661 
7 *731:34 *1054:DIODE 9.3 
8 *731:28 *731:64 32.4464 
9 *731:64 *731:66 0.946429 
10 *731:66 *9425:A 9.83571 
11 *731:66 *731:83 33.2321 
12 *731:83 *9436:A1 17.425 
13 *731:83 *1066:DIODE 9.3 
14 *731:64 *1058:DIODE 9.3 
*END

*D_NET *732 0.0708502
*CONN
*I *9722:A I *D sky130_fd_sc_hd__clkbuf_1
*I *1218:DIODE I *D sky130_fd_sc_hd__diode_2
*I *1048:DIODE I *D sky130_fd_sc_hd__diode_2
*I *9325:A1 I *D sky130_fd_sc_hd__a21o_1
*I *951:DIODE I *D sky130_fd_sc_hd__diode_2
*I *9203:A1 I *D sky130_fd_sc_hd__a221o_1
*I *9901:A I *D sky130_fd_sc_hd__clkbuf_4
*I *1250:DIODE I *D sky130_fd_sc_hd__diode_2
*I *9585:Q O *D sky130_fd_sc_hd__dfrtp_4
*CAP
1 *9722:A 3.82418e-05
2 *1218:DIODE 5.05962e-05
3 *1048:DIODE 0
4 *9325:A1 9.65787e-06
5 *951:DIODE 2.35103e-05
6 *9203:A1 0
7 *9901:A 0.000162181
8 *1250:DIODE 0
9 *9585:Q 0
10 *732:112 8.88379e-05
11 *732:110 0.00365912
12 *732:108 0.00365912
13 *732:106 0.00453832
14 *732:66 0.000162181
15 *732:64 0.0104121
16 *732:62 0.0185141
17 *732:50 0.00819086
18 *732:48 0.000315345
19 *732:44 0.00256911
20 *732:16 0.00284218
21 *732:14 0.0010177
22 *732:4 0.00508968
23 *9325:A1 *749:52 1.04232e-05
24 *732:14 *749:52 0.000769951
25 *732:16 *744:86 5.33334e-05
26 *732:16 *744:88 0.000102207
27 *732:16 *749:52 0.000171104
28 *732:44 *9198:A1 3.18703e-05
29 *732:44 *9627:RESET_B 7.00171e-06
30 *732:44 *749:52 0.00030829
31 *732:48 *9181:B2 0
32 *732:62 *9203:B2 2.84269e-05
33 *732:62 *9476:B2 0.000121926
34 *732:62 *894:22 0.00193959
35 *930:DIODE *732:44 7.71321e-05
36 *9181:C1 *732:44 0
37 *9181:C1 *732:48 0
38 *9185:A *732:44 0.000315187
39 *9193:B1 *732:44 6.87601e-05
40 *9202:B1 *732:62 7.54868e-05
41 *9203:A2 *732:50 3.32865e-05
42 *9203:B1 *732:44 5.81459e-05
43 *9203:B1 *732:50 9.99644e-06
44 *9203:B1 *732:62 1.72894e-05
45 *9203:C1 *732:62 6.91186e-05
46 *9204:A2 *951:DIODE 9.71197e-05
47 *9204:A2 *732:50 5.33005e-05
48 *9215:B *732:44 0
49 *9261:A *732:110 0.000446929
50 *9263:A *732:110 0.000731087
51 *9273:A *732:110 0.00015304
52 *9325:A2 *9325:A1 1.04232e-05
53 *9325:A2 *732:44 2.01322e-05
54 *9625:CLK *732:48 4.25523e-05
55 *9627:CLK *732:44 2.22043e-05
56 *9627:D *732:44 0.000151071
57 *9754:A *732:44 0.000150109
58 *9873:A *732:110 0.00011191
59 *9883:A *732:110 0.000498631
60 *9889:A *732:110 2.91887e-05
61 *337:12 *732:44 0.000167865
62 *337:94 *732:44 0.000268173
63 *337:112 *732:44 6.39829e-05
64 *337:112 *732:48 2.29078e-05
65 *341:21 *732:44 8.57699e-05
66 *344:65 *732:62 0
67 *344:314 *732:44 0
68 *348:194 *732:48 5.66157e-05
69 *348:198 *732:48 0.000193833
70 *348:212 *732:44 0
71 *348:216 *732:44 0
72 *348:322 *951:DIODE 4.43256e-05
73 *348:322 *732:50 2.59355e-05
74 *368:10 *732:44 0
75 *369:248 *732:62 0.000111763
76 *369:280 *732:62 0.000196509
77 *383:20 *732:110 0.000466964
78 *585:18 *732:62 0.00011307
79 *601:14 *732:44 0.000181796
80 *602:8 *732:44 5.03772e-05
81 *619:64 *732:44 0
82 *619:97 *732:44 0
83 *619:127 *732:44 0
84 *696:30 *732:110 0
85 *698:49 *732:44 0.000212745
86 *698:87 *732:44 1.01075e-05
87 *705:14 *732:14 0
88 *716:10 *732:110 0.000448416
89 *721:14 *732:62 0
*RES
1 *9585:Q *732:4 9.3 
2 *732:4 *732:14 21.4464 
3 *732:14 *732:16 6.28571 
4 *732:16 *732:44 46.9018 
5 *732:44 *732:48 8.41964 
6 *732:48 *732:50 1.76786 
7 *732:50 *732:62 38.1592 
8 *732:62 *732:64 190.92 
9 *732:64 *732:66 4.5 
10 *732:66 *1250:DIODE 9.3 
11 *732:66 *9901:A 12.1036 
12 *732:50 *9203:A1 9.3 
13 *732:48 *951:DIODE 10.2464 
14 *732:16 *9325:A1 9.72857 
15 *732:14 *1048:DIODE 9.3 
16 *732:4 *732:106 69.5357 
17 *732:106 *732:108 4.5 
18 *732:108 *732:110 82.3929 
19 *732:110 *732:112 4.5 
20 *732:112 *1218:DIODE 9.83571 
21 *732:112 *9722:A 10.0321 
*END

*D_NET *733 0.000594504
*CONN
*I *9902:A I *D sky130_fd_sc_hd__clkbuf_4
*I *9722:X O *D sky130_fd_sc_hd__clkbuf_1
*CAP
1 *9902:A 0.000256455
2 *9722:X 0.000256455
3 *696:30 *9902:A 8.15939e-05
*RES
1 *9722:X *9902:A 32.1357 
*END

*D_NET *734 0.000661369
*CONN
*I *9159:A I *D sky130_fd_sc_hd__nand2_8
*I *9865:X O *D sky130_fd_sc_hd__clkbuf_2
*CAP
1 *9159:A 0.000125684
2 *9865:X 0.000125684
3 *9159:A *9603:RESET_B 0.000103775
4 *9285:A *9159:A 0.000178774
5 *731:64 *9159:A 0.000127452
*RES
1 *9865:X *9159:A 31.975 
*END

*D_NET *735 0.00872697
*CONN
*I *9351:A1 I *D sky130_fd_sc_hd__a21boi_1
*I *9360:A1 I *D sky130_fd_sc_hd__a21boi_1
*I *9352:A2 I *D sky130_fd_sc_hd__a31o_1
*I *9361:A2 I *D sky130_fd_sc_hd__a31o_1
*I *9865:A I *D sky130_fd_sc_hd__clkbuf_2
*I *9276:A1 I *D sky130_fd_sc_hd__a21o_1
*I *9309:A1_N I *D sky130_fd_sc_hd__o2bb2a_1
*I *9866:X O *D sky130_fd_sc_hd__clkbuf_2
*CAP
1 *9351:A1 0.000121248
2 *9360:A1 0.000612461
3 *9352:A2 6.23862e-05
4 *9361:A2 2.79166e-05
5 *9865:A 0.000201035
6 *9276:A1 0
7 *9309:A1_N 0.00022605
8 *9866:X 5.05962e-05
9 *735:87 0.000771964
10 *735:72 0.000526804
11 *735:41 0.000505605
12 *735:25 0.000420712
13 *735:21 0.000488644
14 *735:8 0.000494088
15 *9309:A1_N *749:98 0.000456427
16 *9309:A1_N *757:52 6.73939e-05
17 *9309:A1_N *757:56 5.41794e-05
18 *9309:A1_N *897:22 0.000155629
19 *9351:A1 *757:50 5.20359e-06
20 *9352:A2 *9352:A1 0.000161858
21 *9360:A1 *9351:B1_N 0.000192856
22 *9360:A1 *9361:A1 0
23 *9360:A1 *757:50 3.06878e-06
24 *9360:A1 *800:14 0
25 *735:21 *757:50 0.000115693
26 *735:21 *757:52 0.000273897
27 *735:41 *757:50 7.6644e-05
28 *735:72 *9361:A1 1.36077e-05
29 *735:72 *747:28 4.04292e-05
30 *735:72 *757:50 0.00012401
31 *735:72 *897:82 0.000288791
32 *735:87 *9352:A1 8.0085e-05
33 *9285:A *9865:A 4.43256e-05
34 *9353:A1 *735:72 0.00021993
35 *9353:B1 *9352:A2 0.000100488
36 *9353:B1 *735:72 0.000127068
37 *9353:B1 *735:87 2.11419e-05
38 *9361:A3 *9361:A2 0.00014285
39 *9362:B2 *735:21 8.00806e-05
40 *9593:CLK *735:21 0
41 *9621:CLK *9865:A 1.3701e-05
42 *321:59 *9351:A1 1.84183e-05
43 *321:59 *9352:A2 1.9814e-05
44 *321:76 *735:72 0.000343334
45 *391:26 *9361:A2 1.74352e-05
46 *391:26 *9865:A 0.00014285
47 *391:26 *735:25 0.000309273
48 *405:69 *9352:A2 3.33634e-05
49 *405:80 *9361:A2 0.000186662
50 *406:10 *9865:A 4.46231e-06
51 *600:92 *9309:A1_N 0
52 *600:92 *735:21 0
53 *616:14 *735:87 2.06379e-05
54 *730:82 *735:21 0
55 *730:82 *735:41 0
56 *730:82 *735:72 0
57 *731:34 *735:72 0.000261858
*RES
1 *9866:X *735:8 14.3357 
2 *735:8 *9309:A1_N 19.8223 
3 *735:8 *735:21 4.98214 
4 *735:21 *735:25 7.5 
5 *735:25 *9276:A1 9.3 
6 *735:25 *9865:A 12.3179 
7 *735:21 *735:41 1.03571 
8 *735:41 *9361:A2 15.5679 
9 *735:41 *735:72 25.469 
10 *735:72 *9352:A2 16.0277 
11 *735:72 *735:87 5.6875 
12 *735:87 *9360:A1 27.5321 
13 *735:87 *9351:A1 10.6571 
*END

*D_NET *736 0.00969731
*CONN
*I *9456:A1 I *D sky130_fd_sc_hd__a21o_1
*I *9358:A2 I *D sky130_fd_sc_hd__a31o_1
*I *9866:A I *D sky130_fd_sc_hd__clkbuf_2
*I *9355:A2 I *D sky130_fd_sc_hd__a31o_1
*I *9357:A1 I *D sky130_fd_sc_hd__a21boi_1
*I *9354:A1 I *D sky130_fd_sc_hd__a21oi_1
*I *9867:X O *D sky130_fd_sc_hd__clkbuf_2
*CAP
1 *9456:A1 0
2 *9358:A2 7.7955e-05
3 *9866:A 0.000703826
4 *9355:A2 0
5 *9357:A1 0
6 *9354:A1 0.000248551
7 *9867:X 0.000714357
8 *736:62 0.000880136
9 *736:58 0.000419658
10 *736:36 0.00035871
11 *736:28 0.00133713
12 *736:16 0.00177593
13 *9354:A1 *9357:B1_N 0
14 *9866:A *9355:A1 0.000154309
15 *9866:A *9360:B1_N 5.80706e-06
16 *9866:A *873:20 7.71417e-05
17 *736:16 *793:26 0.000173097
18 *736:28 *1191:DIODE 0.000186662
19 *736:28 *9594:RESET_B 9.50011e-06
20 *736:28 *870:29 0.000101545
21 *736:28 *871:10 2.34723e-05
22 *736:36 *9357:B1_N 0
23 *736:36 *9594:RESET_B 3.69047e-06
24 *736:36 *871:10 5.74499e-06
25 *736:58 *873:20 0
26 *736:62 *9355:A1 1.02504e-05
27 *736:62 *873:20 0.000124947
28 *995:DIODE *736:28 9.71197e-05
29 *9105:A *736:16 4.87854e-05
30 *9106:A *736:16 5.37741e-06
31 *9106:B *736:16 0.000167292
32 *9243:A *736:28 0.000178847
33 *9275:B *736:28 1.92789e-05
34 *9354:A2 *9354:A1 4.43256e-05
35 *9354:B1 *9354:A1 0.000227539
36 *9354:B1 *736:36 2.95726e-05
37 *9355:B1 *9358:A2 3.17148e-05
38 *9355:B1 *736:62 0.000148196
39 *9357:A2 *736:36 5.33005e-05
40 *9359:B1 *736:36 0.0001399
41 *9359:B1 *736:58 0.000148196
42 *9456:A2 *736:28 0.00027328
43 *9456:B1 *736:16 0.000144075
44 *9594:D *736:28 7.83659e-05
45 *9595:D *736:58 3.69697e-05
46 *9596:D *9866:A 3.14163e-05
47 *9812:A *736:16 8.28902e-05
48 *321:120 *9358:A2 4.46186e-06
49 *321:120 *736:62 0
50 *321:133 *736:36 1.52978e-05
51 *404:50 *736:28 6.79057e-05
52 *404:63 *736:28 0
53 *405:10 *736:28 9.99644e-06
54 *611:12 *736:16 5.52238e-05
55 *616:20 *9354:A1 5.64168e-05
56 *616:20 *9358:A2 2.28335e-05
57 *616:20 *736:36 4.56437e-05
58 *616:20 *736:58 4.06782e-05
59 *730:82 *736:36 0
*RES
1 *9867:X *736:16 31.0857 
2 *736:16 *736:28 27.2321 
3 *736:28 *736:36 7.42857 
4 *736:36 *9354:A1 17.5321 
5 *736:36 *9357:A1 13.8 
6 *736:28 *736:58 7.96429 
7 *736:58 *736:62 4.10714 
8 *736:62 *9355:A2 13.8 
9 *736:62 *9866:A 22.8714 
10 *736:58 *9358:A2 15.3714 
11 *736:16 *9456:A1 9.3 
*END

*D_NET *737 0.00419059
*CONN
*I *9464:A I *D sky130_fd_sc_hd__buf_4
*I *9508:B I *D sky130_fd_sc_hd__and2_1
*I *9511:B I *D sky130_fd_sc_hd__and2_1
*I *9868:X O *D sky130_fd_sc_hd__buf_1
*CAP
1 *9464:A 0
2 *9508:B 0.000461749
3 *9511:B 2.52056e-05
4 *9868:X 0.000201678
5 *737:22 0.000883114
6 *737:10 0.000597838
7 *9508:B *9316:C 2.26327e-05
8 *9508:B *9673:RESET_B 0
9 *9508:B *741:166 0
10 *737:10 *9319:A 4.9071e-05
11 *737:22 *9316:C 2.72545e-05
12 *737:22 *9319:A 0.000176129
13 *9319:B *737:22 0
14 *9482:A2 *737:10 0.000213558
15 *9482:A2 *737:22 0
16 *9506:A *9508:B 0
17 *9507:B2 *9511:B 5.52302e-05
18 *9508:A *9508:B 0
19 *9511:A *9508:B 4.46186e-06
20 *9511:A *737:22 0.000132452
21 *9514:A1 *737:22 5.74562e-05
22 *9673:CLK *9508:B 0
23 *9673:D *9508:B 0
24 *337:253 *737:22 0.00017064
25 *337:257 *737:22 0.000117621
26 *348:99 *9508:B 0.000118592
27 *440:25 *737:22 0.000146523
28 *441:10 *737:22 2.28499e-05
29 *537:14 *737:10 5.40949e-05
30 *537:14 *737:22 5.52302e-05
31 *539:16 *737:22 2.24195e-05
32 *539:31 *737:22 3.07555e-05
33 *549:8 *737:22 0.000267814
34 *549:16 *737:22 0.00027622
*RES
1 *9868:X *737:10 12.7464 
2 *737:10 *737:22 17.6429 
3 *737:22 *9511:B 14.3357 
4 *737:22 *9508:B 21.9071 
5 *737:10 *9464:A 9.3 
*END

*D_NET *738 0.0190096
*CONN
*I *9641:RESET_B I *D sky130_fd_sc_hd__dfrtp_1
*I *9633:RESET_B I *D sky130_fd_sc_hd__dfrtp_1
*I *9653:RESET_B I *D sky130_fd_sc_hd__dfrtp_1
*I *9652:RESET_B I *D sky130_fd_sc_hd__dfrtp_1
*I *9630:RESET_B I *D sky130_fd_sc_hd__dfrtp_1
*I *9696:RESET_B I *D sky130_fd_sc_hd__dfrtp_2
*I *9650:RESET_B I *D sky130_fd_sc_hd__dfrtp_1
*I *9695:RESET_B I *D sky130_fd_sc_hd__dfrtp_4
*I *9651:RESET_B I *D sky130_fd_sc_hd__dfrtp_1
*I *9649:RESET_B I *D sky130_fd_sc_hd__dfrtp_1
*I *9694:RESET_B I *D sky130_fd_sc_hd__dfrtp_4
*I *9647:RESET_B I *D sky130_fd_sc_hd__dfrtp_1
*I *9709:RESET_B I *D sky130_fd_sc_hd__dfrtp_2
*I *9648:RESET_B I *D sky130_fd_sc_hd__dfrtp_1
*I *9645:RESET_B I *D sky130_fd_sc_hd__dfrtp_1
*I *9646:RESET_B I *D sky130_fd_sc_hd__dfrtp_1
*I *9744:X O *D sky130_fd_sc_hd__clkbuf_8
*CAP
1 *9641:RESET_B 0.00014588
2 *9633:RESET_B 0.000278161
3 *9653:RESET_B 0.000145436
4 *9652:RESET_B 0.000452667
5 *9630:RESET_B 0.000553749
6 *9696:RESET_B 0.000553749
7 *9650:RESET_B 0.000177766
8 *9695:RESET_B 0.000340748
9 *9651:RESET_B 0
10 *9649:RESET_B 0.00101236
11 *9694:RESET_B 0
12 *9647:RESET_B 0.000222583
13 *9709:RESET_B 0.000135079
14 *9648:RESET_B 1.01215e-05
15 *9645:RESET_B 0
16 *9646:RESET_B 0
17 *9744:X 0.000267693
18 *738:144 0.000679553
19 *738:132 0.00128924
20 *738:109 0.000974166
21 *738:84 0.000469731
22 *738:72 0.00133202
23 *738:70 0.000577991
24 *738:61 0.000501569
25 *738:42 0.000897071
26 *738:28 0.0012578
27 *738:17 0.000594661
28 *738:10 0.000456406
29 *9630:RESET_B *9082:A 0.000158903
30 *9630:RESET_B *819:27 0.000398822
31 *9633:RESET_B *9479:B2 4.18895e-05
32 *9647:RESET_B *863:10 0.00010326
33 *9649:RESET_B *9649:D 1.02821e-05
34 *9650:RESET_B *9548:A1 0.000137983
35 *9650:RESET_B *818:6 5.33005e-05
36 *9650:RESET_B *826:22 4.50774e-05
37 *9652:RESET_B *827:8 9.60875e-05
38 *9653:RESET_B *821:74 9.84792e-05
39 *9653:RESET_B *828:10 0.000101545
40 *9695:RESET_B *9548:A1 0
41 *738:28 *9830:A 0.000175502
42 *738:61 *9546:A1 0
43 *738:61 *9769:A 3.17163e-05
44 *738:70 *9546:A1 0
45 *738:84 *9548:A1 0
46 *738:109 *9550:A0 8.5662e-05
47 *738:109 *9759:A 0
48 *738:109 *9783:A 0
49 *738:109 *9801:A 0.000124422
50 *738:132 *9550:A0 5.01213e-05
51 *738:132 *826:22 0
52 *738:132 *863:88 0
53 *738:144 *9479:B2 0.000144773
54 *1157:DIODE *738:109 5.10822e-05
55 *9217:A *738:132 0
56 *9470:B2 *738:10 0.000220463
57 *9470:B2 *738:17 0.000119618
58 *9479:A1 *9652:RESET_B 5.33005e-05
59 *9479:A1 *738:132 3.17148e-05
60 *9479:A1 *738:144 8.66063e-05
61 *9479:A2 *738:132 0.000153047
62 *9546:A0 *9648:RESET_B 1.20135e-05
63 *9546:A0 *738:28 2.15245e-05
64 *9546:A0 *738:42 2.3076e-05
65 *9548:A0 *738:84 4.52937e-05
66 *9551:A *738:109 0.000210435
67 *9551:A *738:132 4.98872e-05
68 *9630:CLK *9630:RESET_B 0.000142856
69 *9633:CLK *9633:RESET_B 1.77294e-05
70 *9641:D *9641:RESET_B 0.000104742
71 *9641:D *738:72 3.69047e-06
72 *9648:CLK *738:42 0.000239114
73 *9648:D *9709:RESET_B 2.51343e-06
74 *9648:D *738:42 1.00073e-05
75 *9651:D *9695:RESET_B 0
76 *9699:D *738:132 0
77 *9702:CLK *738:70 3.2006e-05
78 *9702:CLK *738:109 7.28898e-05
79 *9709:CLK *9649:RESET_B 0.000269422
80 *9709:CLK *738:84 5.80706e-06
81 *9793:A *9652:RESET_B 1.74352e-05
82 *166:18 *738:84 0
83 *537:34 *9652:RESET_B 2.52688e-05
84 *537:50 *738:84 0
85 *537:63 *738:84 0
86 *537:99 *738:10 6.44636e-05
87 *537:99 *738:17 0.000158934
88 *537:99 *738:28 4.57445e-05
89 *537:103 *738:10 6.63569e-05
90 *537:105 *738:10 5.52238e-05
91 *537:125 *738:10 0
92 *537:303 *9652:RESET_B 6.02164e-05
93 *537:303 *738:132 0
94 *539:66 *9653:RESET_B 0
95 *539:66 *738:132 6.8646e-06
96 *539:72 *738:132 2.1527e-05
97 *539:227 *9649:RESET_B 9.60939e-05
98 *539:246 *9649:RESET_B 0.00049041
99 *566:70 *738:70 0
100 *566:76 *738:61 0
101 *566:86 *9647:RESET_B 0
102 *585:16 *9650:RESET_B 0.000202537
103 *585:18 *9650:RESET_B 0.000305535
104 *585:18 *9695:RESET_B 1.66373e-05
105 *592:8 *738:132 0
106 *592:55 *738:132 0
107 *594:10 *738:61 0
108 *594:25 *738:61 0
109 *594:62 *738:61 0
110 *594:62 *738:70 0
111 *594:77 *738:70 5.98676e-05
112 *611:34 *9633:RESET_B 4.68041e-05
113 *621:10 *9647:RESET_B 0.000106844
*RES
1 *9744:X *738:10 19.6214 
2 *738:10 *9646:RESET_B 4.5 
3 *738:10 *738:17 5.28571 
4 *738:17 *9645:RESET_B 4.5 
5 *738:17 *738:28 12.0179 
6 *738:28 *9648:RESET_B 0.473214 
7 *738:28 *738:42 8.5 
8 *738:42 *9709:RESET_B 1.70536 
9 *738:42 *9647:RESET_B 13.9821 
10 *738:28 *738:61 9.48214 
11 *738:61 *9694:RESET_B 4.5 
12 *738:61 *738:70 8.26786 
13 *738:70 *738:72 2.58929 
14 *738:72 *9649:RESET_B 10.0625 
15 *9649:RESET_B *738:84 9.48214 
16 *738:84 *9651:RESET_B 4.5 
17 *738:84 *9695:RESET_B 7.04464 
18 *9695:RESET_B *9650:RESET_B 4.92857 
19 *738:72 *738:109 14.0357 
20 *738:109 *9696:RESET_B 4.5 
21 *9696:RESET_B *9630:RESET_B 10.5536 
22 *738:109 *738:132 14.6429 
23 *738:132 *9652:RESET_B 6.77679 
24 *738:132 *738:144 3.41071 
25 *738:144 *9653:RESET_B 12.0446 
26 *738:144 *9633:RESET_B 4.3125 
27 *738:70 *9641:RESET_B 2.66964 
*END

*D_NET *739 0.0368021
*CONN
*I *9706:RESET_B I *D sky130_fd_sc_hd__dfrtp_1
*I *1203:DIODE I *D sky130_fd_sc_hd__diode_2
*I *9635:RESET_B I *D sky130_fd_sc_hd__dfrtp_1
*I *1189:DIODE I *D sky130_fd_sc_hd__diode_2
*I *1199:DIODE I *D sky130_fd_sc_hd__diode_2
*I *9697:RESET_B I *D sky130_fd_sc_hd__dfrtp_2
*I *1212:DIODE I *D sky130_fd_sc_hd__diode_2
*I *1213:DIODE I *D sky130_fd_sc_hd__diode_2
*I *9716:RESET_B I *D sky130_fd_sc_hd__dfrtp_1
*I *9698:RESET_B I *D sky130_fd_sc_hd__dfrtp_2
*I *9714:SET_B I *D sky130_fd_sc_hd__dfstp_2
*I *1211:DIODE I *D sky130_fd_sc_hd__diode_2
*I *9713:SET_B I *D sky130_fd_sc_hd__dfstp_1
*I *1200:DIODE I *D sky130_fd_sc_hd__diode_2
*I *9699:RESET_B I *D sky130_fd_sc_hd__dfrtp_2
*I *1201:DIODE I *D sky130_fd_sc_hd__diode_2
*I *9702:RESET_B I *D sky130_fd_sc_hd__dfrtp_2
*I *1202:DIODE I *D sky130_fd_sc_hd__diode_2
*I *9703:RESET_B I *D sky130_fd_sc_hd__dfrtp_1
*I *9705:RESET_B I *D sky130_fd_sc_hd__dfrtp_1
*I *1205:DIODE I *D sky130_fd_sc_hd__diode_2
*I *9704:RESET_B I *D sky130_fd_sc_hd__dfrtp_1
*I *1204:DIODE I *D sky130_fd_sc_hd__diode_2
*I *1192:DIODE I *D sky130_fd_sc_hd__diode_2
*I *9642:RESET_B I *D sky130_fd_sc_hd__dfrtp_1
*I *1193:DIODE I *D sky130_fd_sc_hd__diode_2
*I *1206:DIODE I *D sky130_fd_sc_hd__diode_2
*I *9643:RESET_B I *D sky130_fd_sc_hd__dfrtp_1
*I *1194:DIODE I *D sky130_fd_sc_hd__diode_2
*I *9644:RESET_B I *D sky130_fd_sc_hd__dfrtp_1
*I *9744:A I *D sky130_fd_sc_hd__clkbuf_8
*I *1235:DIODE I *D sky130_fd_sc_hd__diode_2
*I *9745:X O *D sky130_fd_sc_hd__clkbuf_8
*CAP
1 *9706:RESET_B 0.000262533
2 *1203:DIODE 0
3 *9635:RESET_B 4.85887e-05
4 *1189:DIODE 0.000378924
5 *1199:DIODE 0
6 *9697:RESET_B 4.38505e-05
7 *1212:DIODE 0.000183019
8 *1213:DIODE 0.000160156
9 *9716:RESET_B 0.000334812
10 *9698:RESET_B 0.000420755
11 *9714:SET_B 0.000523563
12 *1211:DIODE 0
13 *9713:SET_B 0.000251136
14 *1200:DIODE 0
15 *9699:RESET_B 0.00081997
16 *1201:DIODE 0
17 *9702:RESET_B 0.000189995
18 *1202:DIODE 0
19 *9703:RESET_B 0.000766311
20 *9705:RESET_B 0.000415353
21 *1205:DIODE 0
22 *9704:RESET_B 0.00010201
23 *1204:DIODE 0
24 *1192:DIODE 0
25 *9642:RESET_B 0.000117463
26 *1193:DIODE 0.000109536
27 *1206:DIODE 0
28 *9643:RESET_B 5.26644e-05
29 *1194:DIODE 0
30 *9644:RESET_B 0.000145868
31 *9744:A 0
32 *1235:DIODE 8.99621e-05
33 *9745:X 0
34 *739:333 0.00132555
35 *739:301 0.000350605
36 *739:276 0.000884139
37 *739:274 0.000523351
38 *739:242 0.000339208
39 *739:240 0.000403083
40 *739:238 0.000398385
41 *739:234 0.000913733
42 *739:221 0.00133197
43 *739:197 0.00114642
44 *739:190 0.000546719
45 *739:176 0.000825817
46 *739:167 0.000442866
47 *739:153 0.000754345
48 *739:131 0.000504659
49 *739:120 0.000290643
50 *739:113 0.000429366
51 *739:106 0.000390709
52 *739:94 0.000178132
53 *739:92 0.000589543
54 *739:78 0.000427017
55 *739:32 0.00018828
56 *739:30 0.000404749
57 *739:26 0.000540184
58 *739:18 0.000513554
59 *739:16 0.000550746
60 *739:8 0.0005058
61 *739:4 0.000346205
62 *1189:DIODE *9094:A 4.01768e-05
63 *1212:DIODE *820:10 0
64 *1212:DIODE *895:120 0.000301162
65 *9642:RESET_B *836:8 1.21258e-05
66 *9643:RESET_B *9469:A1 0.000100831
67 *9644:RESET_B *9794:A 1.52978e-05
68 *9644:RESET_B *9842:A 0.00013029
69 *9644:RESET_B *849:35 6.49613e-05
70 *9699:RESET_B *822:10 0.000185643
71 *9699:RESET_B *863:88 4.30382e-05
72 *9702:RESET_B *9562:A1 0.000142856
73 *9702:RESET_B *856:23 0.000129515
74 *9703:RESET_B *857:35 0.00036192
75 *9704:RESET_B *858:21 0
76 *9704:RESET_B *860:25 6.95205e-05
77 *9705:RESET_B *858:21 6.35798e-05
78 *9706:RESET_B *9708:RESET_B 0.000248798
79 *9706:RESET_B *743:38 0.000183412
80 *9713:SET_B *9777:A 1.06618e-05
81 *9716:RESET_B *9759:A 0.000157618
82 *9716:RESET_B *894:22 0.000259656
83 *739:8 *743:38 0.000166416
84 *739:8 *743:40 6.05161e-06
85 *739:16 *9469:A1 0.000312199
86 *739:16 *9711:RESET_B 0.000268514
87 *739:18 *9469:A1 1.39726e-05
88 *739:26 *9469:A1 3.48705e-05
89 *739:30 *9470:A1 0.00052935
90 *739:78 *9804:A 6.10501e-05
91 *739:92 *9468:B2 2.49484e-05
92 *739:92 *9469:A1 0.000211346
93 *739:92 *836:10 1.18064e-05
94 *739:92 *861:8 5.08481e-05
95 *739:92 *861:19 7.91281e-05
96 *739:153 *9468:B2 4.43046e-05
97 *739:153 *857:35 9.90367e-05
98 *739:153 *861:19 0.000244088
99 *739:167 *760:8 0.000129868
100 *739:167 *856:23 7.03295e-05
101 *739:176 *856:23 0.000230482
102 *739:190 *9082:A 0.000118486
103 *739:221 *9556:A0 5.71472e-05
104 *739:221 *9556:A1 0.000109795
105 *739:221 *785:33 0.000124534
106 *739:221 *819:44 0.000124534
107 *739:221 *822:14 0.000161947
108 *739:221 *863:88 0.000203658
109 *739:234 *9478:A1 6.63007e-05
110 *739:234 *9652:D 0.00010096
111 *739:276 *755:14 0.000156722
112 *739:276 *895:120 0.000102748
113 *739:301 *9652:D 0
114 *739:301 *820:10 0
115 *739:301 *895:120 0.000106592
116 *739:333 *907:DIODE 5.55405e-05
117 *739:333 *9082:A 0.000256767
118 *739:333 *822:10 0.00014183
119 *739:333 *863:88 7.49387e-06
120 *739:333 *863:90 0.000141965
121 *958:DIODE *9642:RESET_B 5.33005e-05
122 *958:DIODE *739:92 0.000148189
123 *1018:DIODE *1213:DIODE 9.33978e-07
124 *1100:DIODE *739:221 0.000256875
125 *9122:B *739:333 0.000268396
126 *9211:B *9642:RESET_B 5.7661e-06
127 *9211:B *739:106 0.000227532
128 *9211:B *739:113 8.57023e-05
129 *9227:B1 *739:190 0
130 *9242:A1 *1189:DIODE 3.61629e-06
131 *9246:A *739:190 0
132 *9247:A *739:190 0
133 *9469:B2 *739:26 0.000202891
134 *9555:A *1212:DIODE 4.94338e-05
135 *9555:A *9698:RESET_B 0.00010096
136 *9557:A *739:221 2.44318e-05
137 *9565:A *739:167 0
138 *9575:A *9704:RESET_B 0
139 *9575:A *9705:RESET_B 0
140 *9575:A *739:120 2.89016e-05
141 *9575:A *739:131 9.31893e-05
142 *9643:D *739:30 6.05161e-06
143 *9644:D *739:30 5.04589e-05
144 *9706:CLK *9706:RESET_B 2.28598e-05
145 *9706:D *9706:RESET_B 5.09962e-05
146 *9708:CLK *9706:RESET_B 4.01768e-05
147 *9708:D *9704:RESET_B 0.000102545
148 *9713:CLK *9713:SET_B 7.70134e-05
149 *9714:CLK *9698:RESET_B 0.000195732
150 *9765:A *739:234 3.18676e-05
151 *9796:A *739:30 4.58194e-05
152 *9805:A *9644:RESET_B 0.00022117
153 *9805:A *739:32 0.000125724
154 *243:8 *9635:RESET_B 0
155 *243:8 *739:333 0
156 *271:8 *739:333 0.000126802
157 *277:8 *9635:RESET_B 9.71532e-05
158 *277:8 *739:333 0.000743014
159 *322:45 *739:190 0.000123137
160 *337:46 *9703:RESET_B 0
161 *337:46 *739:167 0
162 *347:28 *9714:SET_B 0.000344925
163 *347:101 *739:190 0
164 *348:240 *9705:RESET_B 0
165 *348:244 *9642:RESET_B 0
166 *348:244 *9705:RESET_B 8.18783e-05
167 *348:244 *739:106 2.58821e-05
168 *348:244 *739:113 0.000315364
169 *348:244 *739:120 4.17014e-05
170 *362:10 *9705:RESET_B 9.47456e-05
171 *369:56 *9714:SET_B 0.000184635
172 *537:50 *9716:RESET_B 0
173 *537:50 *739:276 0
174 *537:99 *9644:RESET_B 0
175 *537:103 *9644:RESET_B 0
176 *537:103 *739:32 0
177 *537:303 *739:221 0.000232399
178 *537:310 *739:221 8.46829e-05
179 *539:72 *739:221 0.000315158
180 *539:76 *739:221 0.000186669
181 *539:76 *739:234 0.000135157
182 *539:270 *739:153 0.000197984
183 *566:145 *9642:RESET_B 0.000116039
184 *566:145 *739:106 0.000312215
185 *566:145 *739:113 0.000229456
186 *566:152 *739:113 0.000170379
187 *585:33 *9716:RESET_B 8.91417e-05
188 *592:57 *9698:RESET_B 0.000116869
189 *592:59 *9698:RESET_B 6.57914e-05
190 *592:81 *9697:RESET_B 4.73514e-05
191 *593:44 *9706:RESET_B 5.33334e-05
192 *593:44 *739:8 0.000166416
193 *610:14 *1189:DIODE 0.000180068
194 *623:14 *9644:RESET_B 3.9745e-05
195 *698:18 *9705:RESET_B 0.000248625
196 *704:8 *1235:DIODE 8.06427e-05
197 *704:8 *739:26 0
198 *704:8 *739:32 2.49484e-05
199 *704:8 *739:167 0
200 *723:8 *739:16 3.53786e-05
201 *723:8 *739:92 0.000364974
*RES
1 *9745:X *739:4 9.3 
2 *739:4 *739:8 7.5 
3 *739:8 *739:16 9.23214 
4 *739:16 *739:18 0.946429 
5 *739:18 *739:26 14.875 
6 *739:26 *739:30 9.55357 
7 *739:30 *739:32 2.25 
8 *739:32 *1235:DIODE 15.7464 
9 *739:32 *9744:A 13.8 
10 *739:30 *9644:RESET_B 8.65179 
11 *739:26 *1194:DIODE 9.3 
12 *739:18 *9643:RESET_B 10.3393 
13 *739:16 *739:78 4.98214 
14 *739:78 *1206:DIODE 9.3 
15 *739:78 *1193:DIODE 11.0679 
16 *739:8 *739:92 8.01786 
17 *739:92 *739:94 4.5 
18 *739:94 *9642:RESET_B 2.97321 
19 *739:94 *739:106 3 
20 *739:106 *1192:DIODE 9.3 
21 *739:106 *739:113 8.75 
22 *739:113 *1204:DIODE 9.3 
23 *739:113 *739:120 1.76786 
24 *739:120 *9704:RESET_B 11.5536 
25 *739:120 *739:131 1.76786 
26 *739:131 *1205:DIODE 9.3 
27 *739:131 *9705:RESET_B 18.7143 
28 *739:92 *739:153 11.6429 
29 *739:153 *9703:RESET_B 6.02679 
30 *9703:RESET_B *739:167 14.4286 
31 *739:167 *1202:DIODE 9.3 
32 *739:167 *739:176 2.60714 
33 *739:176 *9702:RESET_B 3.66964 
34 *739:176 *739:190 18.5357 
35 *739:190 *1201:DIODE 9.3 
36 *739:190 *739:197 0.428571 
37 *739:197 *9699:RESET_B 4.08036 
38 *9699:RESET_B *739:221 24.9286 
39 *739:221 *1200:DIODE 9.3 
40 *739:221 *739:234 10.5536 
41 *739:234 *739:238 2.8125 
42 *739:238 *739:240 3.20536 
43 *739:240 *739:242 1.35714 
44 *739:242 *9713:SET_B 4.49107 
45 *739:242 *1211:DIODE 9.3 
46 *739:240 *9714:SET_B 13.375 
47 *9714:SET_B *9698:RESET_B 7.80357 
48 *739:238 *739:274 4.83036 
49 *739:274 *739:276 8.32143 
50 *739:276 *9716:RESET_B 11.4554 
51 *739:276 *1213:DIODE 15.5679 
52 *739:274 *739:301 2.70536 
53 *739:301 *1212:DIODE 18.2554 
54 *739:301 *9697:RESET_B 5.38393 
55 *739:234 *1199:DIODE 9.3 
56 *739:197 *739:333 25.25 
57 *739:333 *1189:DIODE 18.8536 
58 *739:333 *9635:RESET_B 5.83929 
59 *739:153 *1203:DIODE 9.3 
60 *739:4 *9706:RESET_B 7.88393 
*END

*D_NET *740 0.0235184
*CONN
*I *9661:RESET_B I *D sky130_fd_sc_hd__dfrtp_1
*I *9663:RESET_B I *D sky130_fd_sc_hd__dfrtp_1
*I *9662:RESET_B I *D sky130_fd_sc_hd__dfrtp_1
*I *9684:RESET_B I *D sky130_fd_sc_hd__dfrtp_4
*I *9683:RESET_B I *D sky130_fd_sc_hd__dfrtp_4
*I *9670:RESET_B I *D sky130_fd_sc_hd__dfrtp_1
*I *9669:RESET_B I *D sky130_fd_sc_hd__dfrtp_1
*I *9671:RESET_B I *D sky130_fd_sc_hd__dfrtp_1
*I *9710:RESET_B I *D sky130_fd_sc_hd__dfrtp_4
*I *9685:RESET_B I *D sky130_fd_sc_hd__dfrtp_4
*I *9672:RESET_B I *D sky130_fd_sc_hd__dfrtp_4
*I *9637:RESET_B I *D sky130_fd_sc_hd__dfrtp_1
*I *9655:RESET_B I *D sky130_fd_sc_hd__dfrtp_1
*I *9712:RESET_B I *D sky130_fd_sc_hd__dfrtp_1
*I *9717:RESET_B I *D sky130_fd_sc_hd__dfrtp_1
*I *9701:RESET_B I *D sky130_fd_sc_hd__dfrtp_1
*I *9746:X O *D sky130_fd_sc_hd__clkbuf_8
*CAP
1 *9661:RESET_B 0.000278767
2 *9663:RESET_B 0.000246067
3 *9662:RESET_B 0.000103758
4 *9684:RESET_B 0
5 *9683:RESET_B 0.0002546
6 *9670:RESET_B 3.28991e-05
7 *9669:RESET_B 8.32442e-05
8 *9671:RESET_B 0.000137832
9 *9710:RESET_B 3.47043e-05
10 *9685:RESET_B 0.000400321
11 *9672:RESET_B 0
12 *9637:RESET_B 0.000229303
13 *9655:RESET_B 8.36617e-05
14 *9712:RESET_B 5.67155e-05
15 *9717:RESET_B 0.000150551
16 *9701:RESET_B 3.59957e-05
17 *9746:X 0.000129887
18 *740:187 0.00073716
19 *740:161 0.000542629
20 *740:143 0.000492077
21 *740:139 0.000279671
22 *740:137 0.00101032
23 *740:131 0.00119557
24 *740:115 0.000792418
25 *740:101 0.000955513
26 *740:79 0.000710969
27 *740:67 0.00120385
28 *740:34 0.000247374
29 *740:24 0.00124715
30 *740:12 0.000575693
31 *740:10 0.000815905
32 *9637:RESET_B *9245:A1 4.28817e-05
33 *9637:RESET_B *9457:S 0.00031275
34 *9637:RESET_B *757:34 0.000197269
35 *9655:RESET_B *757:18 0.000256135
36 *9661:RESET_B *9539:A1 6.92434e-05
37 *9661:RESET_B *9780:A 7.70134e-05
38 *9661:RESET_B *743:110 5.10822e-05
39 *9663:RESET_B *838:10 3.07455e-05
40 *9671:RESET_B *9756:A 6.57914e-05
41 *9683:RESET_B *9067:B 6.75007e-05
42 *9683:RESET_B *794:12 0
43 *9683:RESET_B *846:12 1.07719e-05
44 *9685:RESET_B *794:12 0.00022868
45 *9685:RESET_B *794:18 0
46 *9712:RESET_B *9318:A 0.000137983
47 *9712:RESET_B *9318:D_N 0.000140933
48 *9712:RESET_B *9465:A 8.94203e-05
49 *740:10 *741:6 0.000139907
50 *740:10 *824:8 6.35123e-05
51 *740:24 *807:12 1.72894e-05
52 *740:34 *757:18 0.000389847
53 *740:67 *743:96 5.88893e-05
54 *740:67 *757:34 0.000710905
55 *740:79 *9457:S 0.000564795
56 *740:79 *757:34 5.58941e-05
57 *740:79 *794:18 0
58 *740:101 *9560:A1 6.9253e-05
59 *740:101 *9655:D 7.83587e-05
60 *740:101 *743:110 0
61 *740:101 *796:16 0.000100831
62 *740:101 *824:8 5.99221e-05
63 *740:115 *9756:A 0
64 *740:131 *9497:B2 5.33882e-05
65 *740:131 *9498:A1 0.000217143
66 *740:131 *9539:A1 5.99221e-05
67 *740:131 *743:110 0.000114838
68 *740:137 *794:74 9.28003e-05
69 *740:139 *9834:A 0.000125724
70 *740:139 *794:12 0
71 *740:139 *794:70 0
72 *740:139 *845:8 4.80729e-05
73 *740:143 *794:12 0
74 *740:143 *845:8 0.000149911
75 *740:161 *794:12 5.10822e-05
76 *1147:DIODE *740:137 0.000312209
77 *9068:B *9685:RESET_B 0
78 *9072:B *740:79 0
79 *9075:B *9671:RESET_B 9.71197e-05
80 *9075:B *740:115 1.52978e-05
81 *9075:B *740:131 0.000136185
82 *9080:B *9637:RESET_B 0.000137447
83 *9249:B2 *9637:RESET_B 0.000221634
84 *9320:A *9710:RESET_B 1.92789e-05
85 *9481:A *740:115 0.000144038
86 *9482:B1 *740:101 0.000110601
87 *9483:A *740:101 3.03813e-05
88 *9499:B1 *9710:RESET_B 5.52238e-05
89 *9524:A *9683:RESET_B 2.79092e-05
90 *9524:A *740:161 0.000197086
91 *9525:A0 *740:137 5.04705e-05
92 *9539:A0 *9661:RESET_B 7.83659e-05
93 *9542:A *740:187 0.000364953
94 *9580:A2 *740:67 9.41642e-05
95 *9661:CLK *9661:RESET_B 0
96 *9663:CLK *9662:RESET_B 1.98839e-05
97 *9663:CLK *9663:RESET_B 7.32272e-05
98 *9663:D *9663:RESET_B 0.000121339
99 *9683:CLK *9669:RESET_B 9.84792e-05
100 *9683:CLK *740:161 4.10403e-05
101 *9692:D *740:187 8.66228e-05
102 *9693:CLK *740:187 0.000125724
103 *9710:CLK *740:101 0.000183355
104 *9717:D *740:67 5.52238e-05
105 *235:12 *740:67 5.52238e-05
106 *238:8 *740:10 6.58184e-05
107 *238:8 *740:101 0.000221228
108 *238:8 *740:115 0
109 *337:235 *9655:RESET_B 0.000267821
110 *337:235 *740:34 0.000389847
111 *348:125 *9671:RESET_B 0.000145512
112 *348:125 *740:131 5.41609e-05
113 *440:16 *9712:RESET_B 3.90159e-05
114 *442:52 *740:187 0
115 *442:301 *740:187 0
116 *442:374 *9683:RESET_B 5.33433e-05
117 *540:10 *740:101 1.17968e-05
118 *540:10 *740:115 8.59056e-05
119 *540:67 *740:139 0
120 *540:67 *740:143 0
121 *540:67 *740:187 0
122 *540:109 *740:187 3.93986e-05
123 *540:120 *740:187 3.69865e-05
124 *584:160 *740:101 8.681e-05
125 *597:12 *740:101 0.000195302
126 *597:80 *740:67 0.000187169
127 *598:10 *740:115 0
128 *598:10 *740:131 0.00022287
129 *598:60 *740:131 0.000116474
130 *598:82 *740:131 0.000211913
131 *598:86 *9661:RESET_B 0
132 *598:129 *9662:RESET_B 6.94994e-05
*RES
1 *9746:X *740:10 16.8 
2 *740:10 *740:12 4.5 
3 *740:12 *9701:RESET_B 0.473214 
4 *740:12 *740:24 6.83929 
5 *740:24 *9717:RESET_B 0.901786 
6 *9717:RESET_B *740:34 9.48214 
7 *740:34 *9712:RESET_B 6.61607 
8 *740:34 *9655:RESET_B 7.96429 
9 *740:24 *740:67 26.3214 
10 *740:67 *9637:RESET_B 11.5089 
11 *740:67 *740:79 7.71429 
12 *740:79 *9672:RESET_B 4.5 
13 *740:79 *9685:RESET_B 12.8214 
14 *740:10 *740:101 16.625 
15 *740:101 *9710:RESET_B 5.40179 
16 *740:101 *740:115 9.17857 
17 *740:115 *9671:RESET_B 3.75893 
18 *740:115 *740:131 16.9643 
19 *740:131 *740:137 17.75 
20 *740:137 *740:139 2.85714 
21 *740:139 *740:143 7.66071 
22 *740:143 *9669:RESET_B 1.70536 
23 *740:143 *740:161 13.4821 
24 *740:161 *9670:RESET_B 0.473214 
25 *740:161 *9683:RESET_B 13.6429 
26 *740:139 *9684:RESET_B 4.5 
27 *740:137 *740:187 13.4286 
28 *740:187 *9662:RESET_B 1.70536 
29 *740:187 *9663:RESET_B 4.58036 
30 *740:131 *9661:RESET_B 9.99107 
*END

*D_NET *741 0.0201482
*CONN
*I *9746:A I *D sky130_fd_sc_hd__clkbuf_8
*I *9673:RESET_B I *D sky130_fd_sc_hd__dfrtp_1
*I *9675:RESET_B I *D sky130_fd_sc_hd__dfrtp_1
*I *9678:RESET_B I *D sky130_fd_sc_hd__dfrtp_1
*I *9677:RESET_B I *D sky130_fd_sc_hd__dfrtp_1
*I *9676:RESET_B I *D sky130_fd_sc_hd__dfrtp_1
*I *9674:RESET_B I *D sky130_fd_sc_hd__dfrtp_2
*I *9715:RESET_B I *D sky130_fd_sc_hd__dfrtp_1
*I *9639:RESET_B I *D sky130_fd_sc_hd__dfrtp_1
*I *9629:RESET_B I *D sky130_fd_sc_hd__dfrtp_1
*I *9631:RESET_B I *D sky130_fd_sc_hd__dfrtp_1
*I *9632:RESET_B I *D sky130_fd_sc_hd__dfrtp_1
*I *9634:RESET_B I *D sky130_fd_sc_hd__dfrtp_1
*I *9700:RESET_B I *D sky130_fd_sc_hd__dfrtp_4
*I *9654:RESET_B I *D sky130_fd_sc_hd__dfrtp_1
*I *9628:RESET_B I *D sky130_fd_sc_hd__dfrtp_1
*I *9747:X O *D sky130_fd_sc_hd__clkbuf_8
*CAP
1 *9746:A 0
2 *9673:RESET_B 3.41851e-05
3 *9675:RESET_B 0
4 *9678:RESET_B 0.000275497
5 *9677:RESET_B 0.000776086
6 *9676:RESET_B 0.000274416
7 *9674:RESET_B 0.000589431
8 *9715:RESET_B 0.000254073
9 *9639:RESET_B 0.000529746
10 *9629:RESET_B 0
11 *9631:RESET_B 0.000270911
12 *9632:RESET_B 5.09298e-05
13 *9634:RESET_B 0.000599921
14 *9700:RESET_B 0.000790279
15 *9654:RESET_B 0.000347653
16 *9628:RESET_B 0.00023699
17 *9747:X 0.00031206
18 *741:166 0.000382228
19 *741:164 0.000870371
20 *741:130 0.000780241
21 *741:86 0.000683151
22 *741:72 0.000535255
23 *741:62 0.00109148
24 *741:47 0.00072234
25 *741:12 0.000719637
26 *741:6 0.000758926
27 *9628:RESET_B *9114:A 0
28 *9631:RESET_B *812:12 0.000506342
29 *9632:RESET_B *863:44 6.24997e-05
30 *9639:RESET_B *9254:A 0
31 *9674:RESET_B *9254:A 1.3701e-05
32 *9674:RESET_B *784:10 0.000176027
33 *9676:RESET_B *786:10 7.252e-05
34 *9677:RESET_B *787:6 2.07491e-05
35 *9678:RESET_B *9316:C 0
36 *9700:RESET_B *823:8 0
37 *9700:RESET_B *823:36 0.000269428
38 *9715:RESET_B *812:12 6.0397e-05
39 *741:62 *863:44 6.82179e-05
40 *741:72 *812:12 0.000105689
41 *741:130 *9230:B2 0
42 *741:130 *895:122 0.000380151
43 *741:164 *783:10 5.52302e-05
44 *741:164 *783:55 0.00018077
45 *741:164 *787:6 0.000170955
46 *741:164 *787:27 0.000451815
47 *741:166 *9316:C 0
48 *964:DIODE *741:130 0
49 *979:DIODE *9715:RESET_B 0
50 *1102:DIODE *741:12 0.000268027
51 *1103:DIODE *741:12 7.48091e-05
52 *9141:A *9632:RESET_B 0.000125241
53 *9151:B1 *9628:RESET_B 1.19309e-05
54 *9189:A *9715:RESET_B 0
55 *9219:B *741:130 0.000149911
56 *9226:A *741:72 0.000126439
57 *9226:A *741:86 0.000344932
58 *9230:A1 *741:86 0
59 *9231:B *9676:RESET_B 0.000150632
60 *9232:A *9676:RESET_B 3.01126e-05
61 *9239:A1 *9634:RESET_B 4.35436e-05
62 *9239:A1 *741:47 4.92467e-06
63 *9239:A1 *741:62 0.000125724
64 *9266:B *9715:RESET_B 0
65 *9441:A *9628:RESET_B 0.000153047
66 *9453:A *741:62 0.000230475
67 *9505:B *9673:RESET_B 2.16719e-05
68 *9505:B *9678:RESET_B 6.65302e-05
69 *9505:B *741:166 8.33559e-05
70 *9508:A *9673:RESET_B 1.02504e-05
71 *9508:A *741:164 0.000308252
72 *9508:B *9673:RESET_B 0
73 *9508:B *741:166 0
74 *9509:A1 *741:164 0.000191194
75 *9510:A *741:164 1.72894e-05
76 *9631:CLK *9631:RESET_B 0
77 *9631:CLK *741:72 0
78 *9632:CLK *741:62 0
79 *9654:CLK *9700:RESET_B 0.000142856
80 *9654:D *9628:RESET_B 9.25014e-06
81 *9654:D *9654:RESET_B 4.45163e-05
82 *9654:D *9700:RESET_B 0.000102197
83 *9678:CLK *9678:RESET_B 1.04232e-05
84 *322:77 *9628:RESET_B 0
85 *322:77 *9700:RESET_B 3.82285e-05
86 *322:86 *9700:RESET_B 3.18676e-05
87 *337:339 *741:130 6.60068e-05
88 *347:22 *9674:RESET_B 4.66511e-05
89 *347:22 *741:72 6.74911e-05
90 *347:22 *741:86 0.000623438
91 *348:12 *741:130 5.69519e-05
92 *348:12 *741:164 0
93 *348:28 *9676:RESET_B 5.7616e-05
94 *348:39 *9676:RESET_B 0
95 *369:92 *9674:RESET_B 2.14757e-05
96 *369:94 *9674:RESET_B 2.89016e-05
97 *369:104 *9639:RESET_B 0.000224583
98 *369:104 *9674:RESET_B 2.89114e-05
99 *369:104 *9715:RESET_B 6.42145e-05
100 *369:129 *9674:RESET_B 1.76135e-05
101 *369:190 *741:62 0.000195455
102 *394:8 *9715:RESET_B 2.79092e-05
103 *438:34 *741:164 8.9904e-05
104 *439:6 *9678:RESET_B 7.9835e-05
105 *549:8 *9678:RESET_B 0
106 *566:44 *9628:RESET_B 0
107 *566:44 *9654:RESET_B 0
108 *595:10 *741:62 0.000447622
109 *595:31 *741:72 0.000117553
110 *595:60 *9700:RESET_B 2.58997e-05
111 *595:62 *9700:RESET_B 4.84486e-05
112 *596:21 *9639:RESET_B 1.03968e-05
113 *596:21 *9674:RESET_B 0.000158833
114 *609:6 *9634:RESET_B 1.56e-05
115 *609:36 *9634:RESET_B 8.90468e-05
116 *609:36 *9700:RESET_B 0
117 *740:10 *741:6 0.000139907
*RES
1 *9747:X *741:6 14.7643 
2 *741:6 *741:12 13.2679 
3 *741:12 *9628:RESET_B 8.875 
4 *741:12 *9654:RESET_B 5.23214 
5 *9654:RESET_B *9700:RESET_B 16.3482 
6 *9700:RESET_B *9634:RESET_B 8.21429 
7 *9634:RESET_B *741:47 6.11607 
8 *741:47 *9632:RESET_B 6.14286 
9 *741:47 *741:62 21.7321 
10 *741:62 *741:72 14.1607 
11 *741:72 *9631:RESET_B 11 
12 *741:72 *9629:RESET_B 4.5 
13 *741:62 *741:86 9.23214 
14 *741:86 *9639:RESET_B 8.47321 
15 *9639:RESET_B *9715:RESET_B 14.0446 
16 *741:86 *9674:RESET_B 8.59821 
17 *9674:RESET_B *741:130 18.2679 
18 *741:130 *9676:RESET_B 14.9732 
19 *741:130 *9677:RESET_B 0.883929 
20 *9677:RESET_B *741:164 21.3304 
21 *741:164 *741:166 2.25 
22 *741:166 *9678:RESET_B 9.50893 
23 *741:166 *9675:RESET_B 4.5 
24 *741:164 *9673:RESET_B 5.23214 
25 *741:6 *9746:A 9.3 
*END

*D_NET *742 0.0460648
*CONN
*I *1059:DIODE I *D sky130_fd_sc_hd__diode_2
*I *9430:A0 I *D sky130_fd_sc_hd__mux2_1
*I *1063:DIODE I *D sky130_fd_sc_hd__diode_2
*I *1067:DIODE I *D sky130_fd_sc_hd__diode_2
*I *9438:A1 I *D sky130_fd_sc_hd__mux2_1
*I *9426:A1 I *D sky130_fd_sc_hd__o31ai_1
*I *9356:A1 I *D sky130_fd_sc_hd__o22a_1
*I *1055:DIODE I *D sky130_fd_sc_hd__diode_2
*I *9861:X O *D sky130_fd_sc_hd__clkbuf_4
*CAP
1 *1059:DIODE 0
2 *9430:A0 1.99167e-05
3 *1063:DIODE 0.000453802
4 *1067:DIODE 0.000211694
5 *9438:A1 0.000224309
6 *9426:A1 4.07849e-05
7 *9356:A1 0.000583539
8 *1055:DIODE 0
9 *9861:X 0
10 *742:83 0.00138508
11 *742:67 0.00152799
12 *742:61 0.000671095
13 *742:46 0.00075214
14 *742:24 0.000639518
15 *742:22 0.000593118
16 *742:12 0.00498938
17 *742:10 0.00463752
18 *742:8 0.00606986
19 *742:6 0.00606986
20 *1063:DIODE *866:14 0.000216062
21 *1067:DIODE *864:10 0
22 *9356:A1 *9359:A1 7.32272e-05
23 *9356:A1 *751:97 1.63458e-05
24 *9426:A1 *9426:A2 1.05729e-05
25 *9426:A1 *757:74 9.41642e-05
26 *9430:A0 *866:26 9.90431e-05
27 *742:12 *1033:DIODE 0.000438794
28 *742:12 *9303:B 9.90367e-05
29 *742:12 *891:59 0.000269428
30 *742:24 *751:97 5.33005e-05
31 *742:46 *751:82 0.000118824
32 *742:46 *751:97 0.000200049
33 *742:46 *757:56 0.000101989
34 *742:61 *1061:DIODE 1.21258e-05
35 *742:61 *9426:A3 1.00733e-05
36 *742:61 *744:205 0
37 *742:61 *757:60 3.14078e-05
38 *742:61 *757:74 2.44318e-05
39 *742:61 *866:26 4.84367e-05
40 *742:61 *895:12 0
41 *742:67 *744:175 0
42 *742:67 *744:184 0
43 *742:67 *866:26 2.83284e-06
44 *742:83 *1174:DIODE 5.52302e-05
45 *742:83 *9626:RESET_B 6.79042e-05
46 *742:83 *744:167 0.000958905
47 data_out[13] *742:8 9.3643e-05
48 *1046:DIODE *1067:DIODE 0
49 *9168:C1 *9430:A0 5.33433e-05
50 *9244:A *742:12 0.000173553
51 *9306:C *742:12 8.86413e-05
52 *9307:A *742:12 0.00027032
53 *9356:B1 *9356:A1 6.94157e-05
54 *9359:B2 *9356:A1 5.17614e-05
55 *9426:B1 *742:46 1.89507e-06
56 *9426:B1 *742:61 0.000126439
57 *9428:A0 *742:61 0.000208112
58 *9429:A *742:61 0
59 *9430:S *1063:DIODE 9.60939e-05
60 *9430:S *742:67 9.71197e-05
61 *9431:A *742:67 5.80706e-06
62 *9431:A *742:83 2.35167e-05
63 *9622:D *742:61 3.92854e-05
64 *9626:CLK *742:83 0.000358965
65 *9626:D *742:83 6.09242e-05
66 *322:16 *742:12 9.90367e-05
67 *322:18 *742:12 0.000185643
68 *322:26 *742:12 0.000320024
69 *322:251 *742:12 0.000271345
70 *322:260 *742:12 0.000694747
71 *322:281 *742:12 7.28784e-05
72 *347:109 *742:22 0.000104974
73 *347:109 *742:46 0
74 *347:109 *742:61 0
75 *414:14 *742:12 7.49387e-06
76 *428:10 *742:12 5.52238e-05
77 *584:38 *742:61 4.32957e-05
78 *584:53 *742:61 1.78353e-05
79 *586:6 *742:12 0.000172309
80 *586:12 *742:12 0.000227539
81 *599:8 *742:61 4.46772e-05
82 *599:8 *742:67 1.90062e-05
83 *599:8 *742:83 0.000113038
84 *599:10 *742:83 0.000139653
85 *599:12 *742:83 0.000189455
86 *599:14 *742:83 0.00064474
87 *599:22 *742:83 3.17148e-05
88 *600:92 *742:46 1.08359e-05
89 *601:8 *9438:A1 5.33334e-05
90 *601:8 *742:83 6.03192e-05
91 *601:14 *1067:DIODE 0.000126573
92 *664:8 *742:8 0.00325366
93 *664:14 *742:8 0.00170653
94 *696:30 *742:8 0
95 *720:10 *742:8 0.000751679
96 *731:10 *742:8 0.000938885
97 *731:14 *742:8 0.00201773
98 *731:64 *742:22 0
99 *731:83 *742:61 0
*RES
1 *9861:X *742:6 13.8 
2 *742:6 *742:8 160.107 
3 *742:8 *742:10 4.5 
4 *742:10 *742:12 80.625 
5 *742:12 *742:22 14.5893 
6 *742:22 *742:24 0.946429 
7 *742:24 *1055:DIODE 9.3 
8 *742:24 *9356:A1 17.2464 
9 *742:22 *742:46 13.375 
10 *742:46 *9426:A1 10.2464 
11 *742:46 *742:61 16.2321 
12 *742:61 *742:67 6.48214 
13 *742:67 *742:83 34.8929 
14 *742:83 *9438:A1 13.1214 
15 *742:83 *1067:DIODE 22.675 
16 *742:67 *1063:DIODE 15.5857 
17 *742:61 *9430:A0 14.7464 
18 *742:12 *1059:DIODE 9.3 
*END

*D_NET *743 0.0316798
*CONN
*I *1210:DIODE I *D sky130_fd_sc_hd__diode_2
*I *1237:DIODE I *D sky130_fd_sc_hd__diode_2
*I *9747:A I *D sky130_fd_sc_hd__clkbuf_8
*I *9693:RESET_B I *D sky130_fd_sc_hd__dfrtp_2
*I *1197:DIODE I *D sky130_fd_sc_hd__diode_2
*I *9692:RESET_B I *D sky130_fd_sc_hd__dfrtp_1
*I *9690:RESET_B I *D sky130_fd_sc_hd__dfrtp_1
*I *1195:DIODE I *D sky130_fd_sc_hd__diode_2
*I *1198:DIODE I *D sky130_fd_sc_hd__diode_2
*I *1196:DIODE I *D sky130_fd_sc_hd__diode_2
*I *9691:RESET_B I *D sky130_fd_sc_hd__dfrtp_2
*I *9708:RESET_B I *D sky130_fd_sc_hd__dfrtp_1
*I *9711:RESET_B I *D sky130_fd_sc_hd__dfrtp_1
*I *9745:A I *D sky130_fd_sc_hd__clkbuf_8
*I *9707:RESET_B I *D sky130_fd_sc_hd__dfrtp_1
*I *1207:DIODE I *D sky130_fd_sc_hd__diode_2
*I *1236:DIODE I *D sky130_fd_sc_hd__diode_2
*I *1208:DIODE I *D sky130_fd_sc_hd__diode_2
*I *9748:X O *D sky130_fd_sc_hd__buf_4
*CAP
1 *1210:DIODE 9.52587e-05
2 *1237:DIODE 0
3 *9747:A 2.30826e-05
4 *9693:RESET_B 0
5 *1197:DIODE 0.000312708
6 *9692:RESET_B 6.93605e-05
7 *9690:RESET_B 0.000175101
8 *1195:DIODE 0
9 *1198:DIODE 0
10 *1196:DIODE 0
11 *9691:RESET_B 0.000114305
12 *9708:RESET_B 0.000899323
13 *9711:RESET_B 0.00026591
14 *9745:A 0
15 *9707:RESET_B 0.000123785
16 *1207:DIODE 4.21412e-05
17 *1236:DIODE 0
18 *1208:DIODE 0.000401038
19 *9748:X 0
20 *743:164 0.000602017
21 *743:158 0.000366954
22 *743:145 0.00030198
23 *743:139 0.000868336
24 *743:130 0.00101072
25 *743:114 0.00059601
26 *743:110 0.00247992
27 *743:98 0.00172707
28 *743:96 0.00226177
29 *743:90 0.00289153
30 *743:49 0.0001838
31 *743:40 0.000141716
32 *743:38 0.000766588
33 *743:36 0.00136044
34 *743:34 0.000807017
35 *743:25 0.00027608
36 *743:10 0.000949689
37 *743:4 0.000423051
38 *1197:DIODE *9785:A 8.17274e-05
39 *9690:RESET_B *9497:A1 0.00023366
40 *9690:RESET_B *844:29 0.000114096
41 *9692:RESET_B *9785:A 9.71197e-05
42 *9707:RESET_B *9469:A1 0.000148196
43 *9711:RESET_B *9469:A1 3.90513e-05
44 *743:96 *9186:B1 0
45 *743:96 *9245:A1 0
46 *743:96 *9245:B2 6.51076e-05
47 *743:96 *757:34 1.90111e-05
48 *743:96 *798:31 0
49 *743:96 *815:10 0
50 *743:96 *820:65 8.9163e-05
51 *743:96 *857:35 1.05524e-05
52 *743:98 *757:34 2.51343e-06
53 *743:110 *9318:D_N 1.87026e-05
54 *743:110 *9463:B 0.000222885
55 *743:110 *9669:D 5.24274e-05
56 *743:110 *9771:A 2.15363e-05
57 *743:110 *757:18 0
58 *743:110 *807:12 4.71964e-05
59 *743:110 *815:21 0.000290979
60 *743:110 *824:8 0
61 *743:145 *9067:B 0.000293415
62 *743:145 *9069:B 0.00015304
63 *743:145 *9489:A1 5.07157e-05
64 *743:145 *9497:A1 2.89016e-05
65 *743:158 *9067:B 0.000459684
66 *743:158 *9069:B 0.000189441
67 *743:158 *806:10 0.00019384
68 *743:164 *9067:B 9.62638e-05
69 *743:164 *9839:A 1.52978e-05
70 *743:164 *838:10 6.5185e-05
71 *1154:DIODE *743:114 0.000401764
72 *9116:B *743:96 0.000217877
73 *9210:A2 *743:90 0.000125724
74 *9210:B1 *743:90 0
75 *9210:B1 *743:96 5.80706e-06
76 *9211:B *743:90 0
77 *9458:A *743:96 0
78 *9482:B1 *743:110 0
79 *9483:A *743:110 0.000288162
80 *9526:A *743:110 4.15914e-05
81 *9540:A *743:114 3.06878e-06
82 *9635:CLK *743:96 0
83 *9637:D *743:96 0
84 *9643:CLK *9707:RESET_B 0
85 *9644:CLK *743:49 0
86 *9661:RESET_B *743:110 5.10822e-05
87 *9663:D *743:164 0.000198698
88 *9690:D *9690:RESET_B 0.000614161
89 *9691:D *9691:RESET_B 0
90 *9706:RESET_B *9708:RESET_B 0.000248798
91 *9706:RESET_B *743:38 0.000183412
92 *9708:CLK *9708:RESET_B 2.38671e-05
93 *9708:CLK *743:90 0
94 *9711:CLK *743:10 0
95 *9711:CLK *743:25 0
96 *9823:A *743:96 0.000125731
97 *243:8 *743:96 0.000691653
98 *271:8 *743:96 0
99 *271:12 *743:96 0
100 *276:40 *743:96 2.11419e-05
101 *277:8 *743:96 0
102 *278:14 *743:96 0
103 *279:12 *743:96 0
104 *286:10 *743:96 0
105 *337:220 *743:96 7.02611e-05
106 *344:146 *743:96 0
107 *344:152 *743:96 0
108 *442:32 *743:114 2.14658e-05
109 *442:32 *743:130 0.000181831
110 *442:48 *743:130 0.000272371
111 *442:48 *743:139 0.000446603
112 *540:79 *9691:RESET_B 0.00020212
113 *540:79 *743:114 4.9773e-05
114 *540:331 *743:158 0
115 *540:331 *743:164 0
116 *541:93 *743:139 2.03486e-05
117 *541:95 *743:139 2.07937e-05
118 *566:158 *743:90 0.000266099
119 *566:164 *743:90 0.000201127
120 *566:172 *743:25 4.1331e-06
121 *566:172 *743:34 2.1527e-05
122 *566:172 *743:90 0.000171809
123 *593:44 *9707:RESET_B 9.60939e-05
124 *593:44 *743:40 5.74499e-06
125 *593:67 *743:90 0
126 *593:71 *743:90 0
127 *597:80 *743:96 8.02668e-05
128 *598:10 *743:110 0.000757326
129 *598:60 *743:110 0.000125724
130 *598:82 *743:110 0.000218019
131 *598:86 *743:110 0
132 *653:27 *1210:DIODE 0.000219064
133 *653:27 *743:10 5.71472e-05
134 *723:8 *9711:RESET_B 0.000676441
135 *739:8 *743:38 0.000166416
136 *739:8 *743:40 6.05161e-06
137 *739:16 *9711:RESET_B 0.000268514
138 *740:67 *743:96 5.88893e-05
139 *740:101 *743:110 0
140 *740:131 *743:110 0.000114838
*RES
1 *9748:X *743:4 9.3 
2 *743:4 *743:10 10.3214 
3 *743:10 *1208:DIODE 18.4429 
4 *743:10 *743:25 3.625 
5 *743:25 *1236:DIODE 13.8 
6 *743:25 *743:34 1.03571 
7 *743:34 *743:36 4.5 
8 *743:36 *743:38 6.28571 
9 *743:38 *743:40 0.535714 
10 *743:40 *1207:DIODE 9.83571 
11 *743:40 *743:49 1.03571 
12 *743:49 *9707:RESET_B 11.8929 
13 *743:49 *9745:A 9.3 
14 *743:38 *9711:RESET_B 17.625 
15 *743:36 *9708:RESET_B 13.6696 
16 *743:34 *743:90 14.7768 
17 *743:90 *743:96 43.1875 
18 *743:96 *743:98 1.35714 
19 *743:98 *743:110 43.625 
20 *743:110 *743:114 6.71429 
21 *743:114 *9691:RESET_B 11.5536 
22 *743:114 *1196:DIODE 9.3 
23 *743:110 *743:130 5.875 
24 *743:130 *1198:DIODE 9.3 
25 *743:130 *743:139 12.4286 
26 *743:139 *743:145 8.80357 
27 *743:145 *1195:DIODE 9.3 
28 *743:145 *9690:RESET_B 7.04464 
29 *743:139 *743:158 5.89286 
30 *743:158 *743:164 10.0179 
31 *743:164 *9692:RESET_B 1.29464 
32 *743:164 *1197:DIODE 14.3536 
33 *743:158 *9693:RESET_B 4.5 
34 *743:98 *9747:A 9.72857 
35 *743:96 *1237:DIODE 9.3 
36 *743:4 *1210:DIODE 11.4786 
*END

*D_NET *744 0.0275478
*CONN
*I *9627:RESET_B I *D sky130_fd_sc_hd__dfrtp_1
*I *9586:RESET_B I *D sky130_fd_sc_hd__dfrtp_1
*I *9592:RESET_B I *D sky130_fd_sc_hd__dfrtp_1
*I *9590:RESET_B I *D sky130_fd_sc_hd__dfrtp_1
*I *1178:DIODE I *D sky130_fd_sc_hd__diode_2
*I *9587:RESET_B I *D sky130_fd_sc_hd__dfrtp_4
*I *1176:DIODE I *D sky130_fd_sc_hd__diode_2
*I *9622:RESET_B I *D sky130_fd_sc_hd__dfrtp_1
*I *1186:DIODE I *D sky130_fd_sc_hd__diode_2
*I *1183:DIODE I *D sky130_fd_sc_hd__diode_2
*I *1191:DIODE I *D sky130_fd_sc_hd__diode_2
*I *1182:DIODE I *D sky130_fd_sc_hd__diode_2
*I *9638:RESET_B I *D sky130_fd_sc_hd__dfrtp_1
*I *9636:RESET_B I *D sky130_fd_sc_hd__dfrtp_1
*I *1190:DIODE I *D sky130_fd_sc_hd__diode_2
*I *9625:SET_B I *D sky130_fd_sc_hd__dfstp_1
*I *9594:RESET_B I *D sky130_fd_sc_hd__dfrtp_1
*I *9595:RESET_B I *D sky130_fd_sc_hd__dfrtp_1
*I *1185:DIODE I *D sky130_fd_sc_hd__diode_2
*I *1174:DIODE I *D sky130_fd_sc_hd__diode_2
*I *1187:DIODE I *D sky130_fd_sc_hd__diode_2
*I *1177:DIODE I *D sky130_fd_sc_hd__diode_2
*I *1188:DIODE I *D sky130_fd_sc_hd__diode_2
*I *9585:RESET_B I *D sky130_fd_sc_hd__dfrtp_4
*I *9626:RESET_B I *D sky130_fd_sc_hd__dfrtp_2
*I *9588:RESET_B I *D sky130_fd_sc_hd__dfrtp_1
*I *1175:DIODE I *D sky130_fd_sc_hd__diode_2
*I *9589:RESET_B I *D sky130_fd_sc_hd__dfrtp_1
*I *1179:DIODE I *D sky130_fd_sc_hd__diode_2
*I *9591:RESET_B I *D sky130_fd_sc_hd__dfrtp_1
*I *1180:DIODE I *D sky130_fd_sc_hd__diode_2
*I *1181:DIODE I *D sky130_fd_sc_hd__diode_2
*I *9749:X O *D sky130_fd_sc_hd__clkbuf_8
*CAP
1 *9627:RESET_B 0.000226513
2 *9586:RESET_B 2.83259e-05
3 *9592:RESET_B 0
4 *9590:RESET_B 0.000177174
5 *1178:DIODE 0.000114236
6 *9587:RESET_B 0.000138349
7 *1176:DIODE 0
8 *9622:RESET_B 7.74541e-05
9 *1186:DIODE 0
10 *1183:DIODE 0
11 *1191:DIODE 0.000240447
12 *1182:DIODE 0
13 *9638:RESET_B 0.000253679
14 *9636:RESET_B 0.000284552
15 *1190:DIODE 0
16 *9625:SET_B 0.000211437
17 *9594:RESET_B 0.000166372
18 *9595:RESET_B 0.000408051
19 *1185:DIODE 0
20 *1174:DIODE 0.000110067
21 *1187:DIODE 0
22 *1177:DIODE 0
23 *1188:DIODE 0
24 *9585:RESET_B 0.000482114
25 *9626:RESET_B 0.000223437
26 *9588:RESET_B 0.00044802
27 *1175:DIODE 6.16589e-05
28 *9589:RESET_B 0.000266751
29 *1179:DIODE 0.00022903
30 *9591:RESET_B 2.18047e-05
31 *1180:DIODE 0.000109299
32 *1181:DIODE 0.000158658
33 *9749:X 0.000224236
34 *744:333 0.00034328
35 *744:251 0.000605515
36 *744:242 0.000560015
37 *744:240 0.000557071
38 *744:236 0.000428059
39 *744:227 0.000453954
40 *744:223 0.000753355
41 *744:205 0.000841485
42 *744:188 0.000533709
43 *744:184 0.000377051
44 *744:175 0.000248753
45 *744:169 0.000206261
46 *744:167 0.000687377
47 *744:151 0.000110067
48 *744:149 0.000701169
49 *744:103 0.000758081
50 *744:90 0.000113044
51 *744:88 3.72734e-05
52 *744:86 5.96437e-05
53 *744:82 0.000613545
54 *744:78 0.000653041
55 *744:56 0.000305568
56 *744:54 0.000347362
57 *744:46 0.000835702
58 *744:27 0.000804277
59 *744:25 0.000365354
60 *744:12 0.000547056
61 *744:8 0.000386989
62 *1179:DIODE *779:10 0
63 *1179:DIODE *781:8 2.28335e-05
64 *1179:DIODE *781:14 2.79092e-05
65 *1180:DIODE *9347:B1 0
66 *9586:RESET_B *9586:D 2.27812e-05
67 *9587:RESET_B *9587:D 9.45352e-05
68 *9587:RESET_B *899:28 0.000177052
69 *9589:RESET_B *9337:A 0
70 *9589:RESET_B *779:10 0
71 *9594:RESET_B *871:10 4.85567e-05
72 *9595:RESET_B *9357:B1_N 7.18914e-05
73 *9595:RESET_B *872:10 0.000386575
74 *9622:RESET_B *751:71 9.64459e-05
75 *9627:RESET_B *9586:D 0.000168939
76 *9627:RESET_B *749:12 0
77 *9638:RESET_B *792:49 0.000343778
78 *744:12 *1238:DIODE 6.35798e-05
79 *744:82 *9337:A 0.000153047
80 *744:86 *749:52 4.58976e-05
81 *744:88 *749:52 0.000102207
82 *744:149 *751:24 0
83 *744:167 *751:24 0
84 *744:167 *751:35 0
85 *744:167 *751:52 0
86 *744:167 *867:18 8.07951e-05
87 *744:169 *9587:D 6.09773e-05
88 *744:175 *9587:D 1.92905e-05
89 *744:175 *751:71 0.000222163
90 *744:184 *751:71 0.000321536
91 *744:184 *866:26 0.000240008
92 *744:333 *1238:DIODE 1.19402e-05
93 *744:333 *749:12 0
94 *9172:C *1179:DIODE 0.000223592
95 *9172:C *9589:RESET_B 0.000143804
96 *9173:S *9627:RESET_B 2.28485e-05
97 *9174:A *9586:RESET_B 9.09013e-05
98 *9204:A1 *9625:SET_B 0
99 *9275:A *1191:DIODE 9.66704e-05
100 *9275:A *744:223 1.82657e-05
101 *9275:A *744:227 1.40306e-05
102 *9275:A *744:236 4.72493e-05
103 *9325:A2 *9626:RESET_B 0.00011192
104 *9346:A *1180:DIODE 3.51442e-05
105 *9346:A *744:25 9.54385e-05
106 *9346:A *744:27 0.000114759
107 *9348:A *744:25 0
108 *9348:A *744:27 0
109 *9348:A *744:46 0.000227532
110 *9354:B1 *9594:RESET_B 0.000164934
111 *9428:A0 *9622:RESET_B 5.43587e-05
112 *9428:A0 *744:184 3.25078e-05
113 *9431:A *744:167 0.000119508
114 *9431:A *744:175 2.88202e-05
115 *9433:A *744:175 1.76135e-05
116 *9437:A *744:167 0
117 *9585:D *744:82 0
118 *9585:D *744:149 0
119 *9588:D *9588:RESET_B 0.000137983
120 *9588:D *9626:RESET_B 0.000160657
121 *9590:D *1179:DIODE 0.000128154
122 *9591:CLK *1180:DIODE 3.34295e-05
123 *9591:CLK *744:27 9.91086e-05
124 *9591:CLK *744:46 5.52302e-05
125 *9591:D *1180:DIODE 0
126 *9592:D *1181:DIODE 7.43578e-06
127 *9592:D *744:25 0.000186229
128 *9595:D *9594:RESET_B 5.45147e-05
129 *9595:D *744:223 2.65105e-05
130 *9622:D *9622:RESET_B 0.000175584
131 *9623:D *744:167 0.000104974
132 *9624:D *9587:RESET_B 0.00016641
133 *9624:D *744:169 5.52238e-05
134 *9625:CLK *9638:RESET_B 2.47697e-05
135 *9626:CLK *1174:DIODE 2.14658e-05
136 *9626:D *9626:RESET_B 0
137 *9636:D *9636:RESET_B 3.13687e-05
138 *9754:A *9627:RESET_B 5.33005e-05
139 *337:165 *1191:DIODE 0
140 *337:165 *9625:SET_B 0
141 *337:165 *744:236 0
142 *348:171 *9638:RESET_B 0.000161675
143 *348:173 *9638:RESET_B 1.69115e-05
144 *348:179 *9638:RESET_B 4.29272e-05
145 *377:16 *9627:RESET_B 1.17968e-05
146 *404:71 *9625:SET_B 0
147 *461:14 *9594:RESET_B 0
148 *461:14 *744:223 0.000160287
149 *584:24 *9625:SET_B 2.1527e-05
150 *584:24 *744:236 3.38332e-05
151 *584:38 *9625:SET_B 1.60258e-05
152 *599:22 *9585:RESET_B 1.74352e-05
153 *599:22 *744:149 3.92757e-05
154 *599:22 *744:167 1.08359e-05
155 *599:24 *9585:RESET_B 8.18783e-05
156 *599:30 *1175:DIODE 0.000149904
157 *599:30 *9585:RESET_B 3.67257e-05
158 *599:30 *9588:RESET_B 1.21258e-05
159 *599:30 *744:82 0
160 *599:30 *744:103 0.000115467
161 *599:30 *744:149 0
162 *599:55 *1181:DIODE 1.11474e-05
163 *599:67 *1181:DIODE 1.58163e-05
164 *600:29 *9594:RESET_B 9.58593e-05
165 *600:29 *744:205 2.23774e-05
166 *600:29 *744:223 8.81471e-06
167 *600:44 *744:240 1.39726e-05
168 *600:46 *744:240 2.27416e-05
169 *600:46 *744:242 0.00022786
170 *600:48 *9636:RESET_B 7.32272e-05
171 *600:48 *744:251 5.03772e-05
172 *616:20 *9595:RESET_B 0
173 *653:27 *9627:RESET_B 0.000214028
174 *653:27 *744:12 9.33907e-05
175 *653:27 *744:333 5.74562e-05
176 *675:12 *1179:DIODE 1.72894e-05
177 *696:16 *9595:RESET_B 4.58194e-05
178 *696:16 *9622:RESET_B 9.1677e-05
179 *696:16 *744:188 0.000114577
180 *729:24 *9587:RESET_B 5.92731e-05
181 *729:24 *744:175 7.83587e-05
182 *732:16 *744:86 5.33334e-05
183 *732:16 *744:88 0.000102207
184 *732:44 *9627:RESET_B 7.00171e-06
185 *736:28 *1191:DIODE 0.000186662
186 *736:28 *9594:RESET_B 9.50011e-06
187 *736:36 *9594:RESET_B 3.69047e-06
188 *742:61 *744:205 0
189 *742:67 *744:175 0
190 *742:67 *744:184 0
191 *742:83 *1174:DIODE 5.52302e-05
192 *742:83 *9626:RESET_B 6.79042e-05
193 *742:83 *744:167 0.000958905
*RES
1 *9749:X *744:8 16.8 
2 *744:8 *744:12 6.75 
3 *744:12 *1181:DIODE 11.0679 
4 *744:12 *744:25 9.25 
5 *744:25 *744:27 1.64286 
6 *744:27 *1180:DIODE 16.05 
7 *744:27 *744:46 13.4107 
8 *744:46 *9591:RESET_B 0.473214 
9 *744:46 *744:54 2.17857 
10 *744:54 *744:56 4.5 
11 *744:56 *1179:DIODE 19.0143 
12 *744:56 *9589:RESET_B 6.44643 
13 *9589:RESET_B *744:78 3.15179 
14 *744:78 *744:82 11.3036 
15 *744:82 *744:86 5.44643 
16 *744:86 *744:88 1.76786 
17 *744:88 *744:90 4.5 
18 *744:90 *1175:DIODE 15.7464 
19 *744:90 *744:103 6.14286 
20 *744:103 *9588:RESET_B 3.08036 
21 *9588:RESET_B *9626:RESET_B 14.6161 
22 *744:103 *9585:RESET_B 6.77679 
23 *744:88 *1188:DIODE 9.3 
24 *744:86 *1177:DIODE 9.3 
25 *744:82 *744:149 4.07143 
26 *744:149 *744:151 4.5 
27 *744:151 *1187:DIODE 9.3 
28 *744:151 *1174:DIODE 10.6571 
29 *744:149 *744:167 17.0714 
30 *744:167 *744:169 1.76786 
31 *744:169 *744:175 7.89286 
32 *744:175 *1185:DIODE 13.8 
33 *744:175 *744:184 4.375 
34 *744:184 *744:188 6.67857 
35 *744:188 *9595:RESET_B 15.8393 
36 *9595:RESET_B *744:205 1.02679 
37 *744:205 *9594:RESET_B 14.3125 
38 *744:205 *744:223 8.66071 
39 *744:223 *744:227 5.85714 
40 *744:227 *9625:SET_B 8.26786 
41 *744:227 *744:236 2.55357 
42 *744:236 *744:240 5.44643 
43 *744:240 *744:242 6.28571 
44 *744:242 *1190:DIODE 9.3 
45 *744:242 *744:251 1.375 
46 *744:251 *9636:RESET_B 4.58036 
47 *744:251 *9638:RESET_B 17.3214 
48 *744:240 *1182:DIODE 9.3 
49 *744:236 *1191:DIODE 18.1214 
50 *744:223 *1183:DIODE 9.3 
51 *744:188 *1186:DIODE 9.3 
52 *744:184 *9622:RESET_B 7.54464 
53 *744:169 *1176:DIODE 9.3 
54 *744:167 *9587:RESET_B 4.16964 
55 *744:78 *1178:DIODE 10.6571 
56 *744:54 *9590:RESET_B 2.52679 
57 *744:25 *9592:RESET_B 4.5 
58 *744:8 *744:333 1.64286 
59 *744:333 *9586:RESET_B 5.38393 
60 *744:333 *9627:RESET_B 9.50893 
*END

*D_NET *745 0.0105046
*CONN
*I *9601:RESET_B I *D sky130_fd_sc_hd__dfrtp_4
*I *9602:RESET_B I *D sky130_fd_sc_hd__dfrtp_1
*I *9599:RESET_B I *D sky130_fd_sc_hd__dfrtp_1
*I *9604:RESET_B I *D sky130_fd_sc_hd__dfrtp_1
*I *9597:RESET_B I *D sky130_fd_sc_hd__dfrtp_2
*I *9598:RESET_B I *D sky130_fd_sc_hd__dfrtp_2
*I *9600:RESET_B I *D sky130_fd_sc_hd__dfrtp_2
*I *9605:RESET_B I *D sky130_fd_sc_hd__dfrtp_1
*I *9624:RESET_B I *D sky130_fd_sc_hd__dfrtp_1
*I *9623:RESET_B I *D sky130_fd_sc_hd__dfrtp_1
*I *9750:X O *D sky130_fd_sc_hd__clkbuf_4
*CAP
1 *9601:RESET_B 0.000179844
2 *9602:RESET_B 2.78307e-05
3 *9599:RESET_B 0.000348048
4 *9604:RESET_B 0.00012616
5 *9597:RESET_B 2.38233e-05
6 *9598:RESET_B 0
7 *9600:RESET_B 7.68317e-06
8 *9605:RESET_B 9.70189e-05
9 *9624:RESET_B 0.000139905
10 *9623:RESET_B 3.59957e-05
11 *9750:X 0
12 *745:107 0.000421131
13 *745:71 0.000318939
14 *745:64 0.000593597
15 *745:62 0.000979599
16 *745:49 0.000825584
17 *745:41 0.00108931
18 *745:31 0.000435172
19 *745:12 0.000350602
20 *745:4 0.000247994
21 *9597:RESET_B *9272:A 2.51935e-05
22 *9599:RESET_B *9258:A 0
23 *9599:RESET_B *894:40 0.000100823
24 *9601:RESET_B *749:90 5.93879e-05
25 *9601:RESET_B *895:36 1.17968e-05
26 *9602:RESET_B *896:12 5.15078e-05
27 *9604:RESET_B *9272:A 7.83587e-05
28 *9604:RESET_B *898:6 8.94203e-05
29 *9605:RESET_B *899:6 0.000186669
30 *9624:RESET_B *749:52 3.42457e-05
31 *9624:RESET_B *749:63 6.16864e-05
32 *745:12 *9750:A 5.52302e-05
33 *745:31 *749:90 5.24274e-05
34 *745:41 *749:90 0.000203166
35 *745:49 *9268:A 0.000207913
36 *745:49 *894:22 0
37 *745:49 *894:40 0
38 *745:62 *894:40 0.00011327
39 *745:64 *9258:A 0
40 *745:64 *9294:B 3.83544e-05
41 *745:64 *891:12 0
42 *745:64 *891:14 0
43 *745:64 *891:20 0
44 *745:64 *891:59 2.61337e-05
45 *745:64 *892:38 2.75364e-05
46 *745:64 *893:33 0
47 *745:71 *891:12 0
48 *745:107 *749:90 8.6742e-05
49 *745:107 *895:36 5.33882e-05
50 *1032:DIODE *9600:RESET_B 1.24469e-05
51 *1032:DIODE *745:49 0.000162358
52 *1032:DIODE *745:62 0.00012496
53 *9288:B *745:64 0
54 *9288:B *745:71 0
55 *9292:D *745:62 7.39203e-06
56 *9292:D *745:64 3.23846e-05
57 *9293:A *745:49 0.000160694
58 *9297:C *745:64 0.000256716
59 *9297:D *745:64 2.06112e-05
60 *9300:B *9602:RESET_B 0.000136189
61 *9301:D *9601:RESET_B 5.72433e-05
62 *9306:D *9601:RESET_B 8.25512e-05
63 *9598:D *9604:RESET_B 2.14852e-05
64 *9598:D *745:71 0.000179062
65 *9599:CLK *9599:RESET_B 0.000144773
66 *9599:D *9599:RESET_B 6.87574e-05
67 *9601:D *9601:RESET_B 8.94203e-05
68 *322:281 *745:62 1.21859e-05
69 *322:281 *745:64 7.47029e-06
70 *404:14 *9604:RESET_B 0.000139408
71 *404:14 *745:71 0.000106542
72 *414:24 *9601:RESET_B 1.12381e-05
73 *446:12 *9601:RESET_B 0
74 *446:12 *745:41 0
75 *446:12 *745:107 0
76 *584:72 *745:49 0.000701659
77 *696:24 *9599:RESET_B 5.67638e-05
78 *705:14 *745:31 0
79 *705:14 *745:41 0
80 *729:24 *9605:RESET_B 4.0552e-05
81 *729:56 *9605:RESET_B 5.10038e-05
82 *729:56 *745:49 9.25014e-06
83 *731:83 *9624:RESET_B 0
*RES
1 *9750:X *745:4 9.3 
2 *745:4 *745:12 3.46429 
3 *745:12 *9623:RESET_B 0.473214 
4 *745:12 *9624:RESET_B 12.1607 
5 *745:4 *745:31 5.83929 
6 *745:31 *9605:RESET_B 7.4375 
7 *745:31 *745:41 5.58929 
8 *745:41 *745:49 23.3304 
9 *745:49 *9600:RESET_B 4.77679 
10 *745:49 *745:62 4.66071 
11 *745:62 *745:64 8.16964 
12 *745:64 *9598:RESET_B 4.5 
13 *745:64 *745:71 4.67857 
14 *745:71 *9597:RESET_B 4.97321 
15 *745:71 *9604:RESET_B 7.99107 
16 *745:62 *9599:RESET_B 11.4107 
17 *745:41 *745:107 4.375 
18 *745:107 *9602:RESET_B 5.79464 
19 *745:107 *9601:RESET_B 8.84821 
*END

*D_NET *746 0.019799
*CONN
*I *9665:RESET_B I *D sky130_fd_sc_hd__dfrtp_1
*I *9664:RESET_B I *D sky130_fd_sc_hd__dfrtp_1
*I *9679:RESET_B I *D sky130_fd_sc_hd__dfrtp_4
*I *9680:RESET_B I *D sky130_fd_sc_hd__dfrtp_4
*I *9666:RESET_B I *D sky130_fd_sc_hd__dfrtp_1
*I *9581:RESET_B I *D sky130_fd_sc_hd__dfrtp_1
*I *9583:RESET_B I *D sky130_fd_sc_hd__dfrtp_1
*I *9584:RESET_B I *D sky130_fd_sc_hd__dfrtp_1
*I *9582:RESET_B I *D sky130_fd_sc_hd__dfrtp_1
*I *9660:RESET_B I *D sky130_fd_sc_hd__dfrtp_1
*I *9681:RESET_B I *D sky130_fd_sc_hd__dfrtp_4
*I *9668:RESET_B I *D sky130_fd_sc_hd__dfrtp_1
*I *9667:RESET_B I *D sky130_fd_sc_hd__dfrtp_1
*I *9689:RESET_B I *D sky130_fd_sc_hd__dfrtp_1
*I *9682:RESET_B I *D sky130_fd_sc_hd__dfrtp_4
*I *9659:RESET_B I *D sky130_fd_sc_hd__dfrtp_1
*I *9751:X O *D sky130_fd_sc_hd__clkbuf_8
*CAP
1 *9665:RESET_B 0.000201822
2 *9664:RESET_B 0.000499109
3 *9679:RESET_B 0.000658162
4 *9680:RESET_B 0.000327933
5 *9666:RESET_B 0.00016888
6 *9581:RESET_B 0.000157878
7 *9583:RESET_B 0.000686819
8 *9584:RESET_B 7.96331e-05
9 *9582:RESET_B 0
10 *9660:RESET_B 0.00101161
11 *9681:RESET_B 0.000618873
12 *9668:RESET_B 0.000669495
13 *9667:RESET_B 0
14 *9689:RESET_B 0.000469063
15 *9682:RESET_B 8.15766e-05
16 *9659:RESET_B 0.000726488
17 *9751:X 0
18 *746:118 0.000701703
19 *746:92 0.000857184
20 *746:81 0.00101293
21 *746:53 0.00106346
22 *746:49 0.00064396
23 *746:42 0.000306411
24 *746:32 0.000724067
25 *746:8 0.00100496
26 *746:6 0.000267185
27 *9659:RESET_B *9782:A 0
28 *9659:RESET_B *9837:A 0.000144941
29 *9659:RESET_B *832:18 8.36738e-05
30 *9660:RESET_B *835:14 0.000146523
31 *9664:RESET_B *9664:D 7.54868e-05
32 *9665:RESET_B *9845:A 3.90513e-05
33 *9665:RESET_B *789:10 0
34 *9665:RESET_B *841:8 3.32631e-05
35 *9665:RESET_B *841:10 7.6021e-05
36 *9680:RESET_B *790:10 0.00023006
37 *9680:RESET_B *842:10 9.62151e-05
38 *9682:RESET_B *792:8 4.58194e-05
39 *9689:RESET_B *802:10 6.17606e-05
40 *746:8 *789:16 0
41 *746:8 *792:67 1.17968e-05
42 *746:32 *789:16 0
43 *746:42 *789:16 0
44 *746:42 *791:38 0
45 *746:49 *789:16 0
46 *746:118 *9494:A1 9.47456e-05
47 *746:118 *789:10 0
48 *746:118 *789:16 0
49 *746:118 *791:38 0
50 *746:118 *841:10 0.000100726
51 *746:118 *842:14 1.78447e-05
52 *1110:DIODE *9659:RESET_B 9.25014e-06
53 *1110:DIODE *746:8 0.000150618
54 *9065:B *9584:RESET_B 0.000115082
55 *9332:A *746:81 0.000167078
56 *9486:A1 *9659:RESET_B 0.000250201
57 *9486:A1 *746:8 0.000116474
58 *9488:B1 *9689:RESET_B 4.38128e-05
59 *9516:A *9679:RESET_B 0.000137054
60 *9517:A0 *9665:RESET_B 0
61 *9519:A0 *746:118 0.000123295
62 *9582:D *746:81 0
63 *9583:CLK *9583:RESET_B 3.18676e-05
64 *9584:CLK *746:92 0
65 *9659:CLK *9659:RESET_B 0.000142856
66 *9659:D *9659:RESET_B 2.59355e-05
67 *9660:CLK *746:81 0.000127353
68 *9660:CLK *746:92 0
69 *9667:D *746:42 0
70 *9667:D *746:49 0
71 *9667:D *746:118 0
72 *9668:D *9668:RESET_B 0.000179435
73 *9679:CLK *9664:RESET_B 9.58126e-05
74 *9679:D *9664:RESET_B 7.54868e-05
75 *9681:CLK *9668:RESET_B 7.47337e-05
76 *9681:D *9668:RESET_B 9.52112e-06
77 *9689:D *9689:RESET_B 6.65931e-05
78 *9819:A *9584:RESET_B 0.000222885
79 *228:22 *9584:RESET_B 4.46186e-06
80 *348:161 *9659:RESET_B 0.000127029
81 *348:161 *9682:RESET_B 0.000216442
82 *442:238 *9689:RESET_B 0.000608141
83 *540:198 *9689:RESET_B 0.000225609
84 *540:248 *9689:RESET_B 0.000215102
85 *541:247 *746:8 9.71532e-05
86 *541:247 *746:32 0.000125717
87 *541:247 *746:42 5.41794e-05
88 *541:249 *746:8 0.000137224
89 *589:20 *9689:RESET_B 0.000247622
90 *589:47 *9668:RESET_B 9.91108e-05
91 *589:72 *9679:RESET_B 4.83516e-05
92 *589:72 *9680:RESET_B 0.000648347
93 *591:42 *9581:RESET_B 0.000106542
94 *614:8 *9581:RESET_B 0
95 *730:60 *746:81 0.000143804
96 *730:60 *746:92 5.83233e-05
97 *730:66 *746:81 0.000273387
*RES
1 *9751:X *746:6 13.8 
2 *746:6 *746:8 4.98214 
3 *746:8 *9659:RESET_B 19.2589 
4 *746:8 *9682:RESET_B 6.61607 
5 *746:6 *746:32 1.64286 
6 *746:32 *9689:RESET_B 16.8839 
7 *746:32 *746:42 3.46429 
8 *746:42 *9667:RESET_B 4.5 
9 *746:42 *746:49 1.64286 
10 *746:49 *746:53 4.92857 
11 *746:53 *9668:RESET_B 8.83036 
12 *746:53 *9681:RESET_B 4.49107 
13 *9681:RESET_B *9660:RESET_B 4.92857 
14 *9660:RESET_B *746:81 17.5625 
15 *746:81 *9582:RESET_B 4.5 
16 *746:81 *746:92 8.23214 
17 *746:92 *9584:RESET_B 11.8571 
18 *746:92 *9583:RESET_B 8.70536 
19 *9583:RESET_B *9581:RESET_B 12.1607 
20 *746:49 *746:118 10.1429 
21 *746:118 *9666:RESET_B 4.5 
22 *9666:RESET_B *9680:RESET_B 6.16071 
23 *9680:RESET_B *9679:RESET_B 12.6339 
24 *9679:RESET_B *9664:RESET_B 16.1964 
25 *746:118 *9665:RESET_B 8.65179 
*END

*D_NET *747 0.0146622
*CONN
*I *9718:RESET_B I *D sky130_fd_sc_hd__dfrtp_1
*I *9751:A I *D sky130_fd_sc_hd__clkbuf_8
*I *9688:RESET_B I *D sky130_fd_sc_hd__dfrtp_2
*I *9657:RESET_B I *D sky130_fd_sc_hd__dfrtp_1
*I *9656:RESET_B I *D sky130_fd_sc_hd__dfrtp_1
*I *9658:RESET_B I *D sky130_fd_sc_hd__dfrtp_1
*I *9640:RESET_B I *D sky130_fd_sc_hd__dfrtp_1
*I *9687:RESET_B I *D sky130_fd_sc_hd__dfrtp_2
*I *9686:RESET_B I *D sky130_fd_sc_hd__dfrtp_1
*I *9593:RESET_B I *D sky130_fd_sc_hd__dfrtp_1
*I *9596:RESET_B I *D sky130_fd_sc_hd__dfrtp_2
*I *9752:X O *D sky130_fd_sc_hd__buf_4
*CAP
1 *9718:RESET_B 0.000207976
2 *9751:A 0.000927027
3 *9688:RESET_B 0
4 *9657:RESET_B 0.000233801
5 *9656:RESET_B 0.000872723
6 *9658:RESET_B 0.00125348
7 *9640:RESET_B 0
8 *9687:RESET_B 0.000132918
9 *9686:RESET_B 0.000361812
10 *9593:RESET_B 0
11 *9596:RESET_B 0
12 *9752:X 8.25212e-05
13 *747:105 0.00143792
14 *747:98 0.000426751
15 *747:59 0.000352608
16 *747:52 0.000280487
17 *747:38 0.00041729
18 *747:28 0.000863054
19 *747:21 0.000516946
20 *747:10 0.000183936
21 *9656:RESET_B *9778:A 1.98839e-05
22 *9656:RESET_B *831:6 2.89016e-05
23 *9657:RESET_B *9798:A 0
24 *9657:RESET_B *9831:A 0
25 *9658:RESET_B *9831:A 0.000183713
26 *9686:RESET_B *799:10 4.35452e-05
27 *9687:RESET_B *800:10 3.8524e-05
28 *9751:A *9487:B2 6.24037e-05
29 *9751:A *769:21 4.35336e-05
30 *747:28 *9361:A1 4.5534e-05
31 *747:28 *801:18 0
32 *747:38 *801:18 0
33 *747:52 *801:18 0
34 *747:59 *801:10 0
35 *747:59 *801:18 0
36 *747:98 *801:10 0
37 *1151:DIODE *9686:RESET_B 0.000199173
38 *1223:DIODE *9718:RESET_B 0.000183659
39 *9353:A1 *747:28 0.000255329
40 *9353:A2 *747:21 9.066e-05
41 *9353:A2 *747:28 6.29983e-05
42 *9353:B1 *747:28 2.06112e-05
43 *9462:A1 *9656:RESET_B 5.33005e-05
44 *9462:A2 *9656:RESET_B 9.99012e-05
45 *9462:A2 *9657:RESET_B 9.76689e-05
46 *9462:A2 *9658:RESET_B 6.44345e-05
47 *9487:B1 *9751:A 2.89016e-05
48 *9521:S *9751:A 5.52238e-05
49 *9534:A *9657:RESET_B 0.000105744
50 *9536:A *9751:A 1.72894e-05
51 *9640:CLK *9657:RESET_B 5.49919e-05
52 *9640:D *9656:RESET_B 0.000137983
53 *9658:D *9656:RESET_B 3.18676e-05
54 *9659:D *9751:A 9.90367e-05
55 *299:16 *9656:RESET_B 0.000221641
56 *299:27 *9656:RESET_B 8.57023e-05
57 *383:14 *9657:RESET_B 0.000218371
58 *461:34 *747:10 0.000125731
59 *461:34 *747:21 0.000179656
60 *541:275 *9751:A 0.000270489
61 *541:305 *9751:A 7.77751e-05
62 *584:342 *9657:RESET_B 9.06586e-05
63 *584:365 *9718:RESET_B 3.17163e-05
64 *584:365 *747:105 0.000107503
65 *588:98 *9657:RESET_B 8.10675e-05
66 *589:12 *9751:A 4.37999e-05
67 *616:14 *9718:RESET_B 0.000358146
68 *616:14 *747:21 4.37006e-05
69 *616:14 *747:28 0.000240037
70 *616:14 *747:38 7.48356e-05
71 *616:14 *747:52 0.00011553
72 *616:14 *747:59 0.000140368
73 *616:14 *747:98 0.000238521
74 *616:14 *747:105 0.00069352
75 *616:20 *747:10 0.000127439
76 *616:20 *747:21 0.000159822
77 *625:10 *9656:RESET_B 0.000219711
78 *735:72 *747:28 4.04292e-05
*RES
1 *9752:X *747:10 15.9786 
2 *747:10 *9596:RESET_B 4.5 
3 *747:10 *747:21 4.125 
4 *747:21 *9593:RESET_B 4.5 
5 *747:21 *747:28 9.53571 
6 *747:28 *9686:RESET_B 11.5446 
7 *747:28 *747:38 1.94643 
8 *747:38 *9687:RESET_B 6.61607 
9 *747:38 *747:52 4.53571 
10 *747:52 *9640:RESET_B 4.5 
11 *747:52 *747:59 1.94643 
12 *747:59 *9658:RESET_B 7.84821 
13 *9658:RESET_B *9656:RESET_B 15.25 
14 *9658:RESET_B *9657:RESET_B 16.2321 
15 *747:59 *747:98 3.16071 
16 *747:98 *9688:RESET_B 4.5 
17 *747:98 *747:105 8.92857 
18 *747:105 *9751:A 30.8 
19 *747:105 *9718:RESET_B 10.8661 
*END

*D_NET *748 0.0213495
*CONN
*I *9617:RESET_B I *D sky130_fd_sc_hd__dfrtp_1
*I *9620:RESET_B I *D sky130_fd_sc_hd__dfrtp_1
*I *9619:RESET_B I *D sky130_fd_sc_hd__dfrtp_1
*I *9618:RESET_B I *D sky130_fd_sc_hd__dfrtp_1
*I *9608:RESET_B I *D sky130_fd_sc_hd__dfrtp_1
*I *9611:RESET_B I *D sky130_fd_sc_hd__dfrtp_1
*I *9610:RESET_B I *D sky130_fd_sc_hd__dfrtp_1
*I *9609:RESET_B I *D sky130_fd_sc_hd__dfrtp_1
*I *9607:RESET_B I *D sky130_fd_sc_hd__dfrtp_1
*I *9613:RESET_B I *D sky130_fd_sc_hd__dfrtp_1
*I *9612:RESET_B I *D sky130_fd_sc_hd__dfrtp_1
*I *9615:RESET_B I *D sky130_fd_sc_hd__dfrtp_1
*I *9614:RESET_B I *D sky130_fd_sc_hd__dfrtp_1
*I *9606:RESET_B I *D sky130_fd_sc_hd__dfrtp_1
*I *9621:RESET_B I *D sky130_fd_sc_hd__dfrtp_1
*I *9603:RESET_B I *D sky130_fd_sc_hd__dfrtp_1
*I *9753:X O *D sky130_fd_sc_hd__clkbuf_8
*CAP
1 *9617:RESET_B 0.000449235
2 *9620:RESET_B 2.38233e-05
3 *9619:RESET_B 0.000337712
4 *9618:RESET_B 0.000162294
5 *9608:RESET_B 7.5858e-05
6 *9611:RESET_B 3.94959e-05
7 *9610:RESET_B 6.40644e-05
8 *9609:RESET_B 9.22596e-05
9 *9607:RESET_B 0.00105952
10 *9613:RESET_B 0.000176383
11 *9612:RESET_B 1.90217e-05
12 *9615:RESET_B 0.000185613
13 *9614:RESET_B 3.04304e-05
14 *9606:RESET_B 0.000972217
15 *9621:RESET_B 1.91209e-05
16 *9603:RESET_B 0.000335265
17 *9753:X 0
18 *748:197 0.000579048
19 *748:163 0.000717746
20 *748:134 0.000686558
21 *748:120 0.000739085
22 *748:118 0.00033826
23 *748:89 0.00028775
24 *748:79 0.000674088
25 *748:67 0.00111368
26 *748:41 0.00167595
27 *748:27 0.000818573
28 *748:21 0.000624451
29 *748:4 0.000366445
30 *9603:RESET_B *749:120 7.03295e-05
31 *9603:RESET_B *749:124 5.33433e-05
32 *9609:RESET_B *9278:C 0.000178976
33 *9609:RESET_B *9376:B1 4.18895e-05
34 *9610:RESET_B *885:8 1.20244e-05
35 *9611:RESET_B *9384:A1 0.000125724
36 *9612:RESET_B *887:6 4.96254e-05
37 *9613:RESET_B *749:159 0
38 *9613:RESET_B *888:10 0
39 *9615:RESET_B *749:159 1.20135e-05
40 *9617:RESET_B *9405:A 0
41 *9617:RESET_B *749:130 0
42 *9617:RESET_B *876:10 0
43 *9617:RESET_B *877:16 0
44 *9618:RESET_B *878:14 5.33433e-05
45 *9618:RESET_B *878:38 2.44318e-05
46 *9619:RESET_B *9412:A 3.13184e-05
47 *9619:RESET_B *9416:B1 6.79957e-05
48 *9619:RESET_B *9417:A 0.000156281
49 *9619:RESET_B *878:38 1.08359e-05
50 *9619:RESET_B *878:42 5.52302e-05
51 *9620:RESET_B *808:33 2.51935e-05
52 *748:27 *749:120 0
53 *748:41 *9422:B1 0.000142856
54 *748:79 *9280:A 0
55 *748:79 *749:159 0
56 *748:79 *889:12 0.000342502
57 *748:79 *889:29 0
58 *748:89 *749:159 0
59 *748:89 *888:10 0
60 *748:118 *9369:A 2.68063e-05
61 *748:118 *882:10 0.000143824
62 *748:120 *9369:A 5.53052e-05
63 *748:134 *9369:A 0.00011061
64 *748:134 *9380:A 2.59093e-05
65 *748:134 *9381:A 1.69115e-05
66 *748:134 *9384:A1 6.87181e-05
67 *748:134 *883:36 4.43698e-05
68 *748:134 *885:25 7.49166e-06
69 *748:163 *9417:A 2.39779e-05
70 *748:197 *9412:A 1.00375e-05
71 *748:197 *749:130 0
72 *9159:A *9603:RESET_B 0.000103775
73 *9285:A *9603:RESET_B 1.69115e-05
74 *9363:A *748:41 7.68643e-05
75 *9363:B *748:41 5.33005e-05
76 *9366:A *748:67 3.92854e-05
77 *9367:A *748:67 7.83366e-05
78 *9368:B *748:67 0
79 *9374:A *748:118 0.000176803
80 *9374:B *9608:RESET_B 1.31235e-05
81 *9374:B *748:118 0
82 *9374:B *748:120 0
83 *9375:A *9607:RESET_B 4.15874e-05
84 *9375:A *748:118 2.44318e-05
85 *9378:C_N *748:134 9.06926e-05
86 *9381:B *748:134 0.000118052
87 *9382:C *748:134 0.000102545
88 *9384:A2 *9611:RESET_B 0.000117189
89 *9384:A2 *748:134 5.72597e-05
90 *9394:B *748:79 0.000152202
91 *9395:A *748:89 4.79842e-05
92 *9410:A *9617:RESET_B 0.000167246
93 *9410:C_N *9617:RESET_B 0.000241198
94 *9414:B *9619:RESET_B 0.000161858
95 *9415:A *9618:RESET_B 0.000162019
96 *9418:A *748:163 0.000125731
97 *9418:B *9618:RESET_B 5.52238e-05
98 *9421:A2 *9618:RESET_B 1.28326e-05
99 *9422:A1 *748:41 0.000363333
100 *9423:B *748:41 9.16074e-05
101 *9424:A *748:27 0
102 *9607:D *9607:RESET_B 5.71472e-05
103 *9610:D *9610:RESET_B 1.07719e-05
104 *9610:D *748:134 7.6644e-05
105 *9620:D *9619:RESET_B 4.28817e-05
106 *321:76 *9603:RESET_B 0
107 *369:402 *9606:RESET_B 0
108 *369:402 *748:67 0
109 *369:402 *748:79 0.00013937
110 *383:14 *9610:RESET_B 0.000177052
111 *404:14 *9606:RESET_B 0
112 *404:14 *748:67 0.00014683
113 *404:14 *748:79 0
114 *406:10 *748:27 0.000102207
115 *406:10 *748:41 7.61932e-05
116 *406:10 *748:163 0
117 *406:27 *748:163 0
118 *407:114 *748:67 0
119 *435:21 *748:41 0.000202757
120 *470:33 *9614:RESET_B 1.20135e-05
121 *470:33 *748:79 3.80385e-05
122 *472:8 *748:67 0
123 *475:36 *748:134 0.00020112
124 *481:23 *748:134 4.25716e-05
125 *481:34 *748:134 1.00375e-05
126 *493:16 *9615:RESET_B 9.71197e-05
127 *493:16 *748:79 7.92879e-05
128 *493:24 *748:79 0.000111805
129 *505:40 *9617:RESET_B 7.4826e-05
130 *505:40 *9619:RESET_B 9.60875e-05
131 *505:40 *748:197 7.50601e-05
132 *505:52 *9619:RESET_B 5.40041e-05
133 *505:52 *748:163 0.000148196
134 *587:70 *9607:RESET_B 0.000179357
135 *587:70 *748:41 0.000619931
136 *587:81 *9607:RESET_B 2.95641e-05
137 *590:93 *9612:RESET_B 9.23759e-05
138 *731:16 *9608:RESET_B 9.23759e-05
139 *731:28 *9603:RESET_B 0.000446603
140 *731:28 *9606:RESET_B 5.23624e-05
141 *731:28 *748:21 1.39726e-05
142 *731:28 *748:67 3.55881e-05
143 *731:34 *9603:RESET_B 5.33005e-05
144 *731:64 *9603:RESET_B 0.000318824
*RES
1 *9753:X *748:4 9.3 
2 *748:4 *9603:RESET_B 18.75 
3 *748:4 *748:21 5.03571 
4 *748:21 *748:27 9.125 
5 *748:27 *9621:RESET_B 0.366071 
6 *748:27 *748:41 14.9643 
7 *748:41 *9606:RESET_B 13.0625 
8 *9606:RESET_B *748:67 22.4554 
9 *748:67 *9614:RESET_B 0.473214 
10 *748:67 *748:79 15.6964 
11 *748:79 *9615:RESET_B 7.4375 
12 *748:79 *748:89 1.94643 
13 *748:89 *9612:RESET_B 5.38393 
14 *748:89 *9613:RESET_B 7.66071 
15 *748:41 *9607:RESET_B 11.4732 
16 *9607:RESET_B *748:118 9.53571 
17 *748:118 *748:120 1.49107 
18 *748:120 *9609:RESET_B 6.61607 
19 *748:120 *748:134 13.5357 
20 *748:134 *9610:RESET_B 6.20536 
21 *748:134 *9611:RESET_B 6.14286 
22 *748:118 *9608:RESET_B 6.5 
23 *748:21 *748:163 6.80357 
24 *748:163 *9618:RESET_B 8.83036 
25 *748:163 *9619:RESET_B 10.6875 
26 *9619:RESET_B *748:197 6.75 
27 *748:197 *9620:RESET_B 4.97321 
28 *748:197 *9617:RESET_B 14.3393 
*END

*D_NET *749 0.0291267
*CONN
*I *9753:A I *D sky130_fd_sc_hd__clkbuf_8
*I *1241:DIODE I *D sky130_fd_sc_hd__diode_2
*I *1216:DIODE I *D sky130_fd_sc_hd__diode_2
*I *9719:RESET_B I *D sky130_fd_sc_hd__dfrtp_1
*I *1215:DIODE I *D sky130_fd_sc_hd__diode_2
*I *9721:RESET_B I *D sky130_fd_sc_hd__dfrtp_4
*I *9720:RESET_B I *D sky130_fd_sc_hd__dfrtp_1
*I *1217:DIODE I *D sky130_fd_sc_hd__diode_2
*I *9616:RESET_B I *D sky130_fd_sc_hd__dfrtp_1
*I *1184:DIODE I *D sky130_fd_sc_hd__diode_2
*I *9752:A I *D sky130_fd_sc_hd__buf_4
*I *1240:DIODE I *D sky130_fd_sc_hd__diode_2
*I *9750:A I *D sky130_fd_sc_hd__clkbuf_4
*I *1239:DIODE I *D sky130_fd_sc_hd__diode_2
*I *1238:DIODE I *D sky130_fd_sc_hd__diode_2
*I *9749:A I *D sky130_fd_sc_hd__clkbuf_8
*I *9754:X O *D sky130_fd_sc_hd__clkbuf_4
*CAP
1 *9753:A 0
2 *1241:DIODE 0
3 *1216:DIODE 0
4 *9719:RESET_B 8.88711e-05
5 *1215:DIODE 9.13255e-05
6 *9721:RESET_B 0.000159713
7 *9720:RESET_B 8.36245e-05
8 *1217:DIODE 0
9 *9616:RESET_B 2.79496e-05
10 *1184:DIODE 0.000310468
11 *9752:A 0
12 *1240:DIODE 5.46315e-05
13 *9750:A 2.84912e-05
14 *1239:DIODE 0.000153197
15 *1238:DIODE 0.000258705
16 *9749:A 9.66671e-05
17 *9754:X 0
18 *749:197 0.000349898
19 *749:176 0.000421988
20 *749:167 0.00017865
21 *749:165 0.000240083
22 *749:161 0.000297894
23 *749:159 0.0022224
24 *749:141 0.00239393
25 *749:130 0.00174206
26 *749:124 0.00112251
27 *749:120 0.000639792
28 *749:98 0.00069766
29 *749:90 0.0023032
30 *749:63 0.00121874
31 *749:52 0.00181323
32 *749:12 0.000575627
33 *749:4 0.00177241
34 *1238:DIODE *9324:B_N 6.8646e-06
35 *1239:DIODE *867:18 5.39629e-06
36 *1240:DIODE *801:18 0.000154762
37 *9616:RESET_B *9405:A 3.0525e-05
38 *9749:A *9324:B_N 5.52238e-05
39 *749:12 *9324:B_N 0.000189866
40 *749:12 *864:10 0.000212627
41 *749:90 *9308:A 5.41794e-05
42 *749:90 *866:14 0.000341413
43 *749:90 *895:36 0.000128154
44 *749:98 *1057:DIODE 0.000225609
45 *749:98 *897:22 3.26643e-05
46 *749:120 *9308:A 0.000164554
47 *749:130 *9412:A 0
48 *749:130 *9416:B1 0
49 *749:130 *878:14 0
50 *749:130 *878:38 0
51 *749:159 *9405:A 0.000190858
52 *749:159 *876:8 0.000140933
53 *749:159 *890:10 4.46186e-06
54 *749:165 *9720:D 0
55 *749:176 *9720:D 0.000142856
56 *749:197 *9720:D 0
57 *9173:S *749:12 4.35048e-05
58 *9285:A *749:98 0.000310292
59 *9285:B *749:98 1.97695e-05
60 *9302:A *749:90 1.32386e-05
61 *9306:D *749:90 5.12276e-05
62 *9309:A1_N *749:98 0.000456427
63 *9309:B1 *749:98 1.98839e-05
64 *9311:A *749:120 1.78353e-05
65 *9325:A1 *749:52 1.04232e-05
66 *9325:A2 *749:52 2.13445e-05
67 *9325:B1 *749:52 0.000384541
68 *9346:A *1238:DIODE 0
69 *9349:C1 *749:52 5.33334e-05
70 *9395:A *749:159 4.79842e-05
71 *9410:A *749:130 0
72 *9419:A *749:130 0
73 *9585:D *749:52 0.000614039
74 *9601:RESET_B *749:90 5.93879e-05
75 *9603:D *749:120 0
76 *9603:RESET_B *749:120 7.03295e-05
77 *9603:RESET_B *749:124 5.33433e-05
78 *9613:D *749:159 0.000128154
79 *9613:RESET_B *749:159 0
80 *9615:RESET_B *749:159 1.20135e-05
81 *9616:D *749:130 3.92757e-05
82 *9617:RESET_B *749:130 0
83 *9619:D *749:130 0
84 *9620:D *749:130 0
85 *9621:D *749:120 0.00010923
86 *9624:RESET_B *749:52 3.42457e-05
87 *9624:RESET_B *749:63 6.16864e-05
88 *9627:RESET_B *749:12 0
89 *9721:CLK *9721:RESET_B 4.96254e-05
90 *9766:A *749:197 4.15914e-05
91 *322:10 *749:90 0.000137327
92 *322:16 *749:90 0.000173804
93 *322:338 *749:120 7.25104e-05
94 *332:33 *1238:DIODE 0
95 *393:10 *9720:RESET_B 4.25716e-05
96 *404:14 *749:159 0.000737416
97 *404:14 *749:165 0
98 *404:14 *749:197 0
99 *414:14 *749:90 0.000548016
100 *414:24 *749:90 0.000135495
101 *414:83 *749:90 2.39876e-05
102 *414:83 *749:120 6.65398e-05
103 *461:34 *1240:DIODE 5.5782e-05
104 *493:16 *749:159 0
105 *502:8 *749:159 5.52302e-05
106 *584:61 *749:90 0
107 *590:31 *1184:DIODE 2.24782e-05
108 *590:31 *749:141 4.63499e-05
109 *590:31 *749:159 0.000109314
110 *590:35 *1184:DIODE 9.7659e-05
111 *590:37 *749:130 0
112 *590:39 *749:130 0
113 *591:57 *749:159 0
114 *601:14 *749:52 0.00018372
115 *602:21 *749:12 1.97381e-05
116 *653:27 *1238:DIODE 0
117 *730:14 *9721:RESET_B 5.52302e-05
118 *730:14 *749:176 0.000447622
119 *730:200 *9721:RESET_B 4.22627e-05
120 *731:34 *749:124 3.57366e-05
121 *731:64 *749:90 0
122 *731:64 *749:120 0
123 *732:14 *749:52 0.000769951
124 *732:16 *749:52 0.000171104
125 *732:44 *749:52 0.00030829
126 *744:12 *1238:DIODE 6.35798e-05
127 *744:86 *749:52 4.58976e-05
128 *744:88 *749:52 0.000102207
129 *744:333 *1238:DIODE 1.19402e-05
130 *744:333 *749:12 0
131 *745:12 *9750:A 5.52302e-05
132 *745:31 *749:90 5.24274e-05
133 *745:41 *749:90 0.000203166
134 *745:107 *749:90 8.6742e-05
135 *748:27 *749:120 0
136 *748:79 *749:159 0
137 *748:89 *749:159 0
138 *748:197 *749:130 0
*RES
1 *9754:X *749:4 9.3 
2 *749:4 *749:12 14.0179 
3 *749:12 *9749:A 10.675 
4 *749:12 *1238:DIODE 23.2821 
5 *749:4 *749:52 42.0536 
6 *749:52 *1239:DIODE 15.5679 
7 *749:52 *749:63 2.25 
8 *749:63 *9750:A 14.3357 
9 *749:63 *749:90 26.75 
10 *749:90 *749:98 16.9821 
11 *749:98 *1240:DIODE 20.2464 
12 *749:98 *9752:A 9.3 
13 *749:90 *749:120 16 
14 *749:120 *749:124 1.375 
15 *749:124 *749:130 27.0357 
16 *749:130 *1184:DIODE 13.1214 
17 *749:130 *749:141 4.66071 
18 *749:141 *9616:RESET_B 0.669643 
19 *749:141 *749:159 49.5714 
20 *749:159 *749:161 2.58929 
21 *749:161 *749:165 5.53571 
22 *749:165 *749:167 4.5 
23 *749:167 *1217:DIODE 9.3 
24 *749:167 *749:176 4.66071 
25 *749:176 *9720:RESET_B 10.6429 
26 *749:176 *9721:RESET_B 2.9375 
27 *749:165 *749:197 7.48214 
28 *749:197 *1215:DIODE 10.6571 
29 *749:197 *9719:RESET_B 1.61607 
30 *749:161 *1216:DIODE 9.3 
31 *749:124 *1241:DIODE 9.3 
32 *749:120 *9753:A 9.3 
*END

*D_NET *750 0.000186505
*CONN
*I *9740:DIODE I *D sky130_fd_sc_hd__diode_2
*I *9741:LO O *D sky130_fd_sc_hd__conb_1
*CAP
1 *9740:DIODE 9.32525e-05
2 *9741:LO 9.32525e-05
*RES
1 *9741:LO *9740:DIODE 29.2429 
*END

*D_NET *751 0.0421495
*CONN
*I *9432:A0 I *D sky130_fd_sc_hd__mux2_1
*I *9359:A1 I *D sky130_fd_sc_hd__o22a_1
*I *1056:DIODE I *D sky130_fd_sc_hd__diode_2
*I *1060:DIODE I *D sky130_fd_sc_hd__diode_2
*I *9426:A2 I *D sky130_fd_sc_hd__o31ai_1
*I *1064:DIODE I *D sky130_fd_sc_hd__diode_2
*I *1047:DIODE I *D sky130_fd_sc_hd__diode_2
*I *9323:A I *D sky130_fd_sc_hd__nand2_1
*I *9862:X O *D sky130_fd_sc_hd__buf_2
*CAP
1 *9432:A0 0
2 *9359:A1 8.27441e-05
3 *1056:DIODE 0
4 *1060:DIODE 9.31148e-05
5 *9426:A2 2.8902e-05
6 *1064:DIODE 4.68711e-05
7 *1047:DIODE 9.27009e-05
8 *9323:A 2.04425e-05
9 *9862:X 0.00129439
10 *751:97 0.000320633
11 *751:82 0.000429843
12 *751:71 0.000581229
13 *751:67 0.000590333
14 *751:52 0.000520879
15 *751:35 0.000543105
16 *751:24 0.00209813
17 *751:12 0.00501454
18 *751:10 0.00434448
19 *751:24 *781:14 4.00121e-05
20 *751:52 *9169:B 0.000100356
21 *751:52 *867:18 0
22 *751:67 *867:35 5.52302e-05
23 *751:71 *9162:A 0.000128161
24 data_out[10] *751:12 1.74352e-05
25 data_out[6] *751:12 1.74352e-05
26 *9170:A *751:52 0
27 *9325:A2 *751:24 0
28 *9338:C *751:24 7.6644e-05
29 *9339:A *751:24 0.000833
30 *9356:A1 *9359:A1 7.32272e-05
31 *9356:A1 *751:97 1.63458e-05
32 *9356:B1 *9359:A1 0.000157144
33 *9359:B2 *9359:A1 0
34 *9426:A1 *9426:A2 1.05729e-05
35 *9426:B1 *751:82 0
36 *9428:A0 *751:71 9.37581e-05
37 *9428:A0 *751:82 2.8266e-06
38 *9431:A *751:52 0
39 *9431:A *751:71 0
40 *9432:S *751:67 3.57366e-05
41 *9433:A *751:71 3.38136e-05
42 *9436:A1 *9323:A 2.59355e-05
43 *9437:A *9323:A 5.33005e-05
44 *9437:A *751:24 0
45 *9588:D *751:24 0.000413047
46 *9588:D *751:35 6.98302e-05
47 *9589:D *751:24 0.000642552
48 *9622:CLK *751:71 0.00019712
49 *9622:RESET_B *751:71 9.64459e-05
50 *9623:CLK *751:67 0
51 *9623:D *751:67 0
52 *9870:A *751:12 0.000142856
53 *9876:A *751:12 0.000274288
54 *9880:A *751:10 9.24825e-05
55 *9881:A *751:12 0.00014285
56 *9890:A *751:12 0.000105163
57 *9892:A *751:12 0.000318101
58 *9893:A *751:10 6.72945e-05
59 *9894:A *751:12 0.000230482
60 *455:10 *751:24 4.97918e-05
61 *518:31 *1064:DIODE 1.21258e-05
62 *518:31 *751:67 3.18676e-05
63 *518:48 *751:67 3.58864e-05
64 *518:48 *751:71 3.22738e-05
65 *599:30 *751:24 0.000177871
66 *600:25 *751:71 7.83659e-05
67 *600:25 *751:82 0.000114861
68 *600:92 *751:82 7.55769e-05
69 *600:92 *751:97 0.000189659
70 *616:34 *751:52 0
71 *619:8 *751:12 0.00173481
72 *619:10 *751:12 0.00406612
73 *708:16 *751:10 0.00029981
74 *708:16 *751:12 0.0127241
75 *709:6 *751:12 0.000315158
76 *719:14 *751:24 0
77 *720:16 *1047:DIODE 0.00014285
78 *730:82 *751:71 0.00048663
79 *742:24 *751:97 5.33005e-05
80 *742:46 *751:82 0.000118824
81 *742:46 *751:97 0.000200049
82 *744:149 *751:24 0
83 *744:167 *751:24 0
84 *744:167 *751:35 0
85 *744:167 *751:52 0
86 *744:175 *751:71 0.000222163
87 *744:184 *751:71 0.000321536
*RES
1 *9862:X *751:10 31.7375 
2 *751:10 *751:12 142.027 
3 *751:12 *751:24 44.9107 
4 *751:24 *9323:A 14.3357 
5 *751:24 *751:35 1.94643 
6 *751:35 *1047:DIODE 15.1571 
7 *751:35 *751:52 10.1429 
8 *751:52 *1064:DIODE 9.83571 
9 *751:52 *751:67 3.05357 
10 *751:67 *751:71 18.2857 
11 *751:71 *9426:A2 14.1304 
12 *751:71 *751:82 2.55357 
13 *751:82 *1060:DIODE 14.7464 
14 *751:82 *751:97 9.23214 
15 *751:97 *1056:DIODE 9.3 
16 *751:97 *9359:A1 11.6929 
17 *751:67 *9432:A0 9.3 
*END

*D_NET *752 0.000156798
*CONN
*I *9721:D I *D sky130_fd_sc_hd__dfrtp_4
*I *9755:X O *D sky130_fd_sc_hd__dlygate4sd3_1
*CAP
1 *9721:D 7.83991e-05
2 *9755:X 7.83991e-05
*RES
1 *9755:X *9721:D 28.9393 
*END

*D_NET *753 0.00061305
*CONN
*I *9720:D I *D sky130_fd_sc_hd__dfrtp_1
*I *9766:X O *D sky130_fd_sc_hd__dlygate4sd3_1
*CAP
1 *9720:D 0.000207485
2 *9766:X 0.000207485
3 *591:70 *9720:D 5.52238e-05
4 *749:165 *9720:D 0
5 *749:176 *9720:D 0.000142856
6 *749:197 *9720:D 0
*RES
1 *9766:X *9720:D 30.8321 
*END

*D_NET *754 0.00064089
*CONN
*I *9714:D I *D sky130_fd_sc_hd__dfstp_2
*I *9777:X O *D sky130_fd_sc_hd__dlygate4sd3_1
*CAP
1 *9714:D 0.000320445
2 *9777:X 0.000320445
3 *9697:D *9714:D 0
*RES
1 *9777:X *9714:D 31.8321 
*END

*D_NET *755 0.00381849
*CONN
*I *9716:D I *D sky130_fd_sc_hd__dfrtp_1
*I *9788:X O *D sky130_fd_sc_hd__dlygate4sd3_1
*CAP
1 *9716:D 0
2 *9788:X 0.000897322
3 *755:14 0.000897322
4 *755:14 *9476:B2 0.000269046
5 *755:14 *9759:A 2.8529e-05
6 *755:14 *798:20 2.06112e-05
7 *755:14 *894:22 5.78972e-05
8 *755:14 *895:120 0.000877493
9 *9265:A *755:14 0
10 *9447:A *755:14 9.90367e-05
11 *9549:A *755:14 0.000133797
12 *347:38 *755:14 0
13 *369:14 *755:14 4.33532e-05
14 *369:56 *755:14 0.000337358
15 *739:276 *755:14 0.000156722
*RES
1 *9788:X *755:14 41.8179 
2 *755:14 *9716:D 9.3 
*END

*D_NET *756 0.00552416
*CONN
*I *9712:D I *D sky130_fd_sc_hd__dfrtp_1
*I *9799:X O *D sky130_fd_sc_hd__dlygate4sd3_1
*CAP
1 *9712:D 1.40568e-05
2 *9799:X 0.00132376
3 *756:10 0.00133782
4 *9712:D *9465:A 5.52238e-05
5 *756:10 *9560:A0 3.47737e-05
6 *756:10 *798:20 0
7 *9122:B *756:10 0.000170299
8 *9150:B2 *756:10 0
9 *9221:A1 *756:10 0
10 *9246:A *756:10 0
11 *9455:A *756:10 0.000152333
12 *9701:CLK *756:10 0
13 *238:8 *756:10 0.00108699
14 *238:14 *756:10 0.00117817
15 *312:22 *756:10 0
16 *347:101 *756:10 0
17 *369:280 *756:10 0.00014183
18 *440:16 *9712:D 2.89016e-05
*RES
1 *9799:X *756:10 45.6393 
2 *756:10 *9712:D 14.3357 
*END

*D_NET *757 0.0403519
*CONN
*I *9362:A1 I *D sky130_fd_sc_hd__o22a_1
*I *1057:DIODE I *D sky130_fd_sc_hd__diode_2
*I *1061:DIODE I *D sky130_fd_sc_hd__diode_2
*I *9426:A3 I *D sky130_fd_sc_hd__o31ai_1
*I *9434:A0 I *D sky130_fd_sc_hd__mux2_1
*I *1065:DIODE I *D sky130_fd_sc_hd__diode_2
*I *9863:X O *D sky130_fd_sc_hd__buf_2
*CAP
1 *9362:A1 3.52181e-05
2 *1057:DIODE 0.000157215
3 *1061:DIODE 0.000115951
4 *9426:A3 2.15003e-05
5 *9434:A0 0.000219923
6 *1065:DIODE 0.000257974
7 *9863:X 0.000113267
8 *757:74 0.00136917
9 *757:60 0.00100631
10 *757:56 0.000734761
11 *757:52 0.000859643
12 *757:50 0.00185344
13 *757:34 0.00381118
14 *757:18 0.00433775
15 *757:16 0.00336843
16 *757:10 0.006383
17 *757:8 0.00529548
18 *1065:DIODE *9203:B2 0.000311196
19 *1065:DIODE *873:20 6.78033e-05
20 *757:18 *9074:A 7.6644e-05
21 *757:18 *9318:D_N 1.37292e-05
22 *757:18 *9463:B 0
23 *757:18 *9669:D 9.11365e-06
24 *757:18 *9771:A 1.3142e-05
25 *757:18 *794:82 0.000131331
26 *757:18 *798:31 0.00022771
27 *757:18 *798:42 6.74815e-05
28 *757:34 *9827:A 7.77751e-05
29 *757:50 *9351:B1_N 0.000120148
30 *757:50 *800:14 0.00012401
31 *757:50 *897:82 8.69414e-05
32 *757:52 *897:16 0
33 *757:56 *897:22 0
34 *757:74 *9357:B1_N 0.000105208
35 *757:74 *870:29 4.32258e-05
36 *757:74 *872:8 2.22999e-05
37 *757:74 *872:10 0.000486297
38 *757:74 *873:20 2.09697e-05
39 *757:74 *894:22 5.6321e-05
40 *9079:A *757:34 0.000123617
41 *9113:B *757:34 2.14757e-05
42 *9187:A2 *9434:A0 8.05323e-05
43 *9201:B *9434:A0 6.59012e-07
44 *9245:B1 *757:18 2.96514e-05
45 *9250:B *757:56 0
46 *9309:A1_N *757:52 6.73939e-05
47 *9309:A1_N *757:56 5.41794e-05
48 *9351:A1 *757:50 5.20359e-06
49 *9360:A1 *757:50 3.06878e-06
50 *9362:A2 *9362:A1 6.05161e-06
51 *9426:A1 *757:74 9.41642e-05
52 *9434:S *1065:DIODE 7.40526e-05
53 *9434:S *757:74 8.06261e-05
54 *9490:A1 *757:18 0
55 *9490:A2 *757:18 0
56 *9637:RESET_B *757:34 0.000197269
57 *9655:RESET_B *757:18 0.000256135
58 *9662:D *757:18 9.11365e-06
59 *9692:CLK *757:18 0
60 *9781:A *757:18 0
61 *9863:A *757:8 1.92905e-05
62 *231:16 *757:34 0.000229456
63 *321:59 *757:50 3.68879e-05
64 *321:76 *757:50 0.000339074
65 *321:80 *757:50 0
66 *321:80 *757:52 0
67 *322:26 *757:56 0
68 *337:216 *757:34 0.000276582
69 *337:220 *757:34 0.000409788
70 *337:235 *757:18 0.00020933
71 *341:53 *9434:A0 0.000226513
72 *344:126 *757:34 4.47653e-05
73 *344:138 *757:34 0.000469935
74 *347:109 *757:56 0
75 *369:290 *757:74 0.000265418
76 *405:42 *757:50 8.50152e-05
77 *442:10 *757:18 6.16958e-05
78 *442:28 *757:18 4.66189e-05
79 *442:328 *757:18 0
80 *540:67 *757:18 0
81 *541:20 *757:18 0.000149904
82 *541:41 *757:18 0.000616417
83 *541:101 *757:18 0
84 *584:38 *757:74 0
85 *598:86 *757:18 0.000502205
86 *598:105 *757:18 0.000389847
87 *600:29 *757:74 0.000137983
88 *600:92 *757:56 0
89 *730:82 *757:74 0.000556393
90 *735:21 *757:50 0.000115693
91 *735:21 *757:52 0.000273897
92 *735:41 *757:50 7.6644e-05
93 *735:72 *757:50 0.00012401
94 *740:34 *757:18 0.000389847
95 *740:67 *757:34 0.000710905
96 *740:79 *757:34 5.58941e-05
97 *742:46 *757:56 0.000101989
98 *742:61 *1061:DIODE 1.21258e-05
99 *742:61 *9426:A3 1.00733e-05
100 *742:61 *757:60 3.14078e-05
101 *742:61 *757:74 2.44318e-05
102 *743:96 *757:34 1.90111e-05
103 *743:98 *757:34 2.51343e-06
104 *743:110 *757:18 0
105 *749:98 *1057:DIODE 0.000225609
*RES
1 *9863:X *757:8 15.1571 
2 *757:8 *757:10 95.4018 
3 *757:10 *757:16 21.7321 
4 *757:16 *757:18 51.2054 
5 *757:18 *757:34 49.5 
6 *757:34 *757:50 39.3929 
7 *757:50 *757:52 4.375 
8 *757:52 *757:56 14.3393 
9 *757:56 *757:60 1.375 
10 *757:60 *757:74 23.8594 
11 *757:74 *1065:DIODE 17.8357 
12 *757:74 *9434:A0 16.8 
13 *757:60 *9426:A3 9.72857 
14 *757:56 *1061:DIODE 10.6571 
15 *757:52 *1057:DIODE 15.9786 
16 *757:50 *9362:A1 14.3357 
*END

*D_NET *758 0.00181477
*CONN
*I *9586:D I *D sky130_fd_sc_hd__dfrtp_1
*I *9810:X O *D sky130_fd_sc_hd__dlygate4sd3_1
*CAP
1 *9586:D 0.000584531
2 *9810:X 0.000584531
3 *9173:S *9586:D 3.69697e-05
4 *9174:A *9586:D 5.67058e-06
5 *9586:RESET_B *9586:D 2.27812e-05
6 *9627:RESET_B *9586:D 0.000168939
7 *377:16 *9586:D 3.28897e-05
8 *599:67 *9586:D 0.000279638
9 *602:21 *9586:D 9.88232e-05
*RES
1 *9810:X *9586:D 37.408 
*END

*D_NET *759 0.00150718
*CONN
*I *9514:B1 I *D sky130_fd_sc_hd__o21a_1
*I *9821:X O *D sky130_fd_sc_hd__dlygate4sd3_1
*CAP
1 *9514:B1 0.00026283
2 *9821:X 0.00026283
3 *9514:B1 *788:8 8.00806e-05
4 *9236:A2 *9514:B1 5.7661e-06
5 *9501:A1 *9514:B1 4.87953e-05
6 *9501:B1 *9514:B1 0.000187882
7 *9503:A1 *9514:B1 0
8 *9503:A2 *9514:B1 0
9 *9504:A2 *9514:B1 0.000523458
10 *337:243 *9514:B1 8.00806e-05
11 *538:12 *9514:B1 5.54547e-05
*RES
1 *9821:X *9514:B1 35.6714 
*END

*D_NET *760 0.0038835
*CONN
*I *9467:B2 I *D sky130_fd_sc_hd__a22o_1
*I *9468:A1 I *D sky130_fd_sc_hd__a22o_1
*I *9564:A0 I *D sky130_fd_sc_hd__mux2_1
*I *9832:X O *D sky130_fd_sc_hd__dlygate4sd3_1
*CAP
1 *9467:B2 0.000186622
2 *9468:A1 0.000171862
3 *9564:A0 5.9113e-05
4 *9832:X 0.000183191
5 *760:12 0.00032427
6 *760:8 0.000463108
7 *9468:A1 *9564:A1 0.000139907
8 *9564:A0 *9564:A1 0.000272371
9 *1078:DIODE *9468:A1 2.44318e-05
10 *1227:DIODE *9467:B2 0.000357054
11 *9565:A *760:8 0
12 *537:227 *9468:A1 0.000435186
13 *537:227 *9564:A0 0.000317082
14 *539:257 *9467:B2 8.07313e-05
15 *539:270 *9467:B2 0.00025216
16 *566:234 *760:8 0.000340066
17 *566:234 *760:12 0.000146474
18 *593:10 *760:8 0
19 *593:10 *760:12 0
20 *739:167 *760:8 0.000129868
*RES
1 *9832:X *760:8 18.175 
2 *760:8 *760:12 6.44643 
3 *760:12 *9564:A0 12.3 
4 *760:12 *9468:A1 13.9429 
5 *760:8 *9467:B2 19.675 
*END

*D_NET *761 0.000392495
*CONN
*I *9642:D I *D sky130_fd_sc_hd__dfrtp_1
*I *9843:X O *D sky130_fd_sc_hd__dlygate4sd3_1
*CAP
1 *9642:D 0.000156848
2 *9843:X 0.000156848
3 *9572:S *9642:D 0
4 *566:128 *9642:D 2.89114e-05
5 *566:130 *9642:D 0
6 *593:10 *9642:D 2.79092e-05
7 *593:12 *9642:D 2.19778e-05
*RES
1 *9843:X *9642:D 30.3143 
*END

*D_NET *762 0.00199141
*CONN
*I *9499:B2 I *D sky130_fd_sc_hd__a22o_1
*I *9578:A0 I *D sky130_fd_sc_hd__mux2_1
*I *9756:X O *D sky130_fd_sc_hd__dlygate4sd3_1
*CAP
1 *9499:B2 0.00023834
2 *9578:A0 0.000467084
3 *9756:X 0
4 *762:4 0.000705423
5 *9481:A *9578:A0 2.89016e-05
6 *9498:A2 *9499:B2 9.71197e-05
7 *9498:B1 *9499:B2 1.33343e-05
8 *9498:B2 *9499:B2 6.37509e-05
9 *9670:D *9499:B2 5.52302e-05
10 *383:12 *9499:B2 4.65116e-05
11 *383:12 *9578:A0 0.000246817
12 *540:10 *9578:A0 2.89016e-05
13 *541:83 *9499:B2 0
*RES
1 *9756:X *762:4 9.3 
2 *762:4 *9578:A0 17.2286 
3 *762:4 *9499:B2 14.2464 
*END

*D_NET *763 0.000995804
*CONN
*I *9671:D I *D sky130_fd_sc_hd__dfrtp_1
*I *9757:X O *D sky130_fd_sc_hd__dlygate4sd3_1
*CAP
1 *9671:D 0.000328618
2 *9757:X 0.000328618
3 *9579:A *9671:D 4.25809e-05
4 *9710:D *9671:D 0.000159038
5 *348:125 *9671:D 0.000122091
6 *598:16 *9671:D 1.48591e-05
*RES
1 *9757:X *9671:D 33.6 
*END

*D_NET *764 0.000585935
*CONN
*I *9421:A1 I *D sky130_fd_sc_hd__a211o_1
*I *9758:X O *D sky130_fd_sc_hd__dlygate4sd3_1
*CAP
1 *9421:A1 0.000176929
2 *9758:X 0.000176929
3 *9421:A1 *9282:B 3.99614e-06
4 *9420:A *9421:A1 0
5 *9421:B1 *9421:A1 7.30699e-05
6 *407:42 *9421:A1 7.6644e-05
7 *412:10 *9421:A1 6.91157e-05
8 *412:16 *9421:A1 9.25014e-06
9 *505:40 *9421:A1 0
*RES
1 *9758:X *9421:A1 30.725 
*END

*D_NET *765 0.0029302
*CONN
*I *9562:A0 I *D sky130_fd_sc_hd__mux2_1
*I *9467:A1 I *D sky130_fd_sc_hd__a22o_1
*I *9759:X O *D sky130_fd_sc_hd__dlygate4sd3_1
*CAP
1 *9562:A0 0.00010859
2 *9467:A1 0.000277103
3 *9759:X 0.000571745
4 *765:6 0.000957437
5 *9467:A1 *9832:A 3.92757e-05
6 *9467:A1 *817:23 7.4826e-05
7 *9562:A0 *9832:A 5.52302e-05
8 *9467:A2 *9467:A1 3.34295e-05
9 *9563:A *765:6 0.000111511
10 *9641:D *9467:A1 0.000125969
11 *566:261 *765:6 0.000519862
12 *566:263 *765:6 5.52238e-05
13 *704:8 *9467:A1 0
*RES
1 *9759:X *765:6 17.2286 
2 *765:6 *9467:A1 23.7464 
3 *765:6 *9562:A0 10.6571 
*END

*D_NET *766 0.00304181
*CONN
*I *9482:A1 I *D sky130_fd_sc_hd__a22o_1
*I *9480:B2 I *D sky130_fd_sc_hd__a22o_1
*I *9760:X O *D sky130_fd_sc_hd__dlygate4sd3_1
*CAP
1 *9482:A1 0.000178145
2 *9480:B2 0.000522635
3 *9760:X 0.000106647
4 *766:6 0.000807426
5 *9480:B2 *9465:A 0.000100823
6 *9480:B2 *9760:A 0.000202224
7 *9480:B2 *785:33 0.000114237
8 *9480:B2 *796:42 2.97829e-05
9 *9480:B2 *829:10 0.00010096
10 *9482:A1 *9465:A 3.22325e-05
11 *9482:A1 *796:42 0.000100831
12 *766:6 *9465:A 9.41642e-05
13 *766:6 *796:42 8.25843e-06
14 *9221:A1 *9482:A1 7.48828e-05
15 *9221:A2 *9482:A1 0.000368878
16 *9465:B *9480:B2 1.39726e-05
17 *9480:A1 *9480:B2 4.46186e-06
18 *9482:A2 *9482:A1 0.000125731
19 *344:214 *9480:B2 2.05612e-05
20 *344:220 *9480:B2 6.05161e-06
21 *539:50 *9480:B2 2.89016e-05
*RES
1 *9760:X *766:6 10.6571 
2 *766:6 *9480:B2 27.4429 
3 *766:6 *9482:A1 23.5857 
*END

*D_NET *767 0.000563516
*CONN
*I *9655:D I *D sky130_fd_sc_hd__dfrtp_1
*I *9761:X O *D sky130_fd_sc_hd__dlygate4sd3_1
*CAP
1 *9655:D 0.000166733
2 *9761:X 0.000166733
3 *9655:D *830:16 3.18676e-05
4 *9483:A *9655:D 2.56601e-05
5 *584:142 *9655:D 4.08637e-05
6 *584:160 *9655:D 5.33005e-05
7 *740:101 *9655:D 7.83587e-05
*RES
1 *9761:X *9655:D 30.5464 
*END

*D_NET *768 0.00554365
*CONN
*I *9188:A I *D sky130_fd_sc_hd__nand2_8
*I *9864:X O *D sky130_fd_sc_hd__clkbuf_2
*CAP
1 *9188:A 0.000110178
2 *9864:X 0.00158603
3 *768:10 0.00169621
4 *347:6 *9188:A 5.33005e-05
5 *385:14 *768:10 0.00209793
*RES
1 *9864:X *768:10 48.9786 
2 *768:10 *9188:A 15.5857 
*END

*D_NET *769 0.00305011
*CONN
*I *9488:A1 I *D sky130_fd_sc_hd__a22o_1
*I *9487:B2 I *D sky130_fd_sc_hd__a22o_1
*I *9535:A0 I *D sky130_fd_sc_hd__mux2_1
*I *9762:X O *D sky130_fd_sc_hd__dlygate4sd3_1
*CAP
1 *9488:A1 0.000152078
2 *9487:B2 0.000214334
3 *9535:A0 0
4 *9762:X 0.000298148
5 *769:21 0.000473185
6 *769:12 0.000404921
7 *9488:A1 *802:10 6.30388e-05
8 *769:12 *9798:A 0.000273269
9 *769:12 *802:16 0.000396427
10 *9487:B1 *9487:B2 5.52238e-05
11 *9535:S *9488:A1 0.000101545
12 *9751:A *9487:B2 6.24037e-05
13 *9751:A *769:21 4.35336e-05
14 *541:305 *9487:B2 0.000140933
15 *541:305 *9488:A1 0.000315179
16 *541:322 *9488:A1 5.58941e-05
17 *584:361 *769:12 0
*RES
1 *9762:X *769:12 25.8714 
2 *769:12 *9535:A0 9.3 
3 *769:12 *769:21 1.78571 
4 *769:21 *9487:B2 13.1393 
5 *769:21 *9488:A1 22.9786 
*END

*D_NET *770 0.000252625
*CONN
*I *9660:D I *D sky130_fd_sc_hd__dfrtp_1
*I *9763:X O *D sky130_fd_sc_hd__dlygate4sd3_1
*CAP
1 *9660:D 9.48307e-05
2 *9763:X 9.48307e-05
3 *9332:A *9660:D 0
4 *9660:CLK *9660:D 6.29635e-05
*RES
1 *9763:X *9660:D 29.225 
*END

*D_NET *771 0.00410112
*CONN
*I *9552:A0 I *D sky130_fd_sc_hd__mux2_1
*I *9478:A1 I *D sky130_fd_sc_hd__a22o_1
*I *9477:B2 I *D sky130_fd_sc_hd__a22o_1
*I *9764:X O *D sky130_fd_sc_hd__dlygate4sd3_1
*CAP
1 *9552:A0 0.000605325
2 *9478:A1 0.000198087
3 *9477:B2 0.000222584
4 *9764:X 0.00026141
5 *771:23 0.000918642
6 *771:10 0.000599224
7 *9477:B2 *863:44 0
8 *9552:A0 *9552:A1 5.71472e-05
9 *9552:A0 *9652:D 0
10 *9552:A0 *820:10 0
11 *9552:A0 *863:44 0
12 *771:10 *863:44 0.000178847
13 *771:10 *863:88 0.000180777
14 *771:23 *863:44 0
15 *1160:DIODE *9552:A0 9.69119e-06
16 *1219:DIODE *771:10 0.00018372
17 *9477:B1 *9477:B2 0.000188376
18 *9477:B1 *771:10 8.07313e-05
19 *9552:S *9552:A0 9.90367e-05
20 *9555:A *9552:A0 2.95641e-05
21 *9765:A *9478:A1 3.18676e-05
22 *537:40 *9477:B2 0
23 *539:82 *9477:B2 0
24 *539:310 *771:10 4.88637e-05
25 *566:328 *9552:A0 0.000140933
26 *592:77 *9552:A0 0
27 *739:234 *9478:A1 6.63007e-05
*RES
1 *9764:X *771:10 19.6929 
2 *771:10 *9477:B2 17.8 
3 *771:10 *771:23 1.64286 
4 *771:23 *9478:A1 17.2286 
5 *771:23 *9552:A0 24.925 
*END

*D_NET *772 0.000421264
*CONN
*I *9652:D I *D sky130_fd_sc_hd__dfrtp_1
*I *9765:X O *D sky130_fd_sc_hd__dlygate4sd3_1
*CAP
1 *9652:D 0.000160152
2 *9765:X 0.000160152
3 *9552:A0 *9652:D 0
4 *739:234 *9652:D 0.00010096
5 *739:301 *9652:D 0
*RES
1 *9765:X *9652:D 30.1893 
*END

*D_NET *773 0.00199564
*CONN
*I *9491:B2 I *D sky130_fd_sc_hd__a22o_1
*I *9492:A1 I *D sky130_fd_sc_hd__a22o_1
*I *9767:X O *D sky130_fd_sc_hd__dlygate4sd3_1
*CAP
1 *9491:B2 0.000514658
2 *9492:A1 6.61169e-05
3 *9767:X 0
4 *773:6 0.000580775
5 *9491:B2 *840:16 0.000272658
6 *9492:A1 *9835:A 0
7 *9492:A1 *840:16 0.00020455
8 *9491:A1 *9491:B2 5.52238e-05
9 *9768:A *9491:B2 4.38511e-05
10 *9768:A *9492:A1 7.80968e-05
11 *373:14 *9491:B2 0.000100913
12 *373:14 *9492:A1 1.00375e-05
13 *541:189 *9491:B2 6.87574e-05
*RES
1 *9767:X *773:6 13.8 
2 *773:6 *9492:A1 16.6571 
3 *773:6 *9491:B2 25.2464 
*END

*D_NET *774 0.000598614
*CONN
*I *9664:D I *D sky130_fd_sc_hd__dfrtp_1
*I *9768:X O *D sky130_fd_sc_hd__dlygate4sd3_1
*CAP
1 *9664:D 0.000224329
2 *9768:X 0.000224329
3 *9664:CLK *9664:D 7.6612e-06
4 *9664:RESET_B *9664:D 7.54868e-05
5 *9679:CLK *9664:D 6.68086e-05
6 *373:14 *9664:D 0
*RES
1 *9768:X *9664:D 31.2607 
*END

*D_NET *775 0.00239056
*CONN
*I *9474:B2 I *D sky130_fd_sc_hd__a22o_1
*I *9475:A1 I *D sky130_fd_sc_hd__a22o_1
*I *9769:X O *D sky130_fd_sc_hd__dlygate4sd3_1
*CAP
1 *9474:B2 0
2 *9475:A1 0.000315695
3 *9769:X 0.000445262
4 *775:14 0.000760956
5 *9475:A1 *854:21 7.65804e-05
6 *775:14 *863:28 0
7 *9474:A2 *775:14 0
8 *9475:A2 *9475:A1 2.89016e-05
9 *9546:A0 *775:14 4.25716e-05
10 *9648:CLK *775:14 0
11 *9709:CLK *9475:A1 3.93893e-05
12 *537:80 *775:14 9.60771e-05
13 *537:93 *775:14 0.000212382
14 *539:116 *9475:A1 2.26327e-05
15 *539:124 *9475:A1 5.80706e-06
16 *566:86 *775:14 0.000344301
17 *594:10 *775:14 0
18 *594:25 *775:14 0
*RES
1 *9769:X *775:14 28.2643 
2 *775:14 *9475:A1 22.9607 
3 *775:14 *9474:B2 9.3 
*END

*D_NET *776 0.000573013
*CONN
*I *9649:D I *D sky130_fd_sc_hd__dfrtp_1
*I *9770:X O *D sky130_fd_sc_hd__dlygate4sd3_1
*CAP
1 *9649:D 0.000182223
2 *9770:X 0.000182223
3 *9649:RESET_B *9649:D 1.02821e-05
4 *9709:CLK *9649:D 8.07313e-05
5 *539:227 *9649:D 4.87953e-05
6 *539:246 *9649:D 6.87574e-05
*RES
1 *9770:X *9649:D 22.4214 
*END

*D_NET *777 0.00397193
*CONN
*I *9497:B2 I *D sky130_fd_sc_hd__a22o_1
*I *9498:A1 I *D sky130_fd_sc_hd__a22o_1
*I *9771:X O *D sky130_fd_sc_hd__dlygate4sd3_1
*CAP
1 *9497:B2 0.00045012
2 *9498:A1 0.000891578
3 *9771:X 0
4 *777:6 0.0013417
5 *9497:B2 *9074:B 0
6 *9497:B2 *9497:A1 5.55288e-05
7 *9498:A1 *9074:B 0
8 *1132:DIODE *9497:B2 0.000195002
9 *9075:B *9498:A1 0
10 *9498:B1 *9498:A1 0.000135749
11 *9526:A *9497:B2 0.00014285
12 *9670:CLK *9498:A1 0.000118256
13 *9670:D *9498:A1 4.58194e-05
14 *9772:A *9498:A1 0
15 *442:10 *9498:A1 0.000313458
16 *540:31 *9498:A1 0
17 *540:67 *9498:A1 0
18 *598:16 *9498:A1 1.13406e-05
19 *740:131 *9497:B2 5.33882e-05
20 *740:131 *9498:A1 0.000217143
*RES
1 *9771:X *777:6 13.8 
2 *777:6 *9498:A1 37.6214 
3 *777:6 *9497:B2 20.925 
*END

*D_NET *778 0.000194717
*CONN
*I *9669:D I *D sky130_fd_sc_hd__dfrtp_1
*I *9772:X O *D sky130_fd_sc_hd__dlygate4sd3_1
*CAP
1 *9669:D 4.69503e-05
2 *9772:X 4.69503e-05
3 *9669:D *9074:A 3.92757e-05
4 *743:110 *9669:D 5.24274e-05
5 *757:18 *9669:D 9.11365e-06
*RES
1 *9772:X *9669:D 28.9393 
*END

*D_NET *779 0.00231852
*CONN
*I *9337:A I *D sky130_fd_sc_hd__nor2_1
*I *9340:B I *D sky130_fd_sc_hd__nand2_1
*I *9171:B I *D sky130_fd_sc_hd__or2_1
*I *9589:Q O *D sky130_fd_sc_hd__dfrtp_1
*CAP
1 *9337:A 0.000272257
2 *9340:B 0.000132421
3 *9171:B 1.37855e-05
4 *9589:Q 0
5 *779:10 0.000403088
6 *779:6 0.000529138
7 *9171:B *9171:A 0.00010096
8 *9340:B *9171:A 0.000438128
9 *1179:DIODE *779:10 0
10 *9172:C *9337:A 0
11 *9342:A2 *9171:B 9.90367e-05
12 *9342:A2 *9340:B 9.90431e-05
13 *9589:RESET_B *9337:A 0
14 *9589:RESET_B *779:10 0
15 *9590:D *779:10 4.57445e-05
16 *9811:A *9340:B 3.18676e-05
17 *599:30 *9337:A 0
18 *744:82 *9337:A 0.000153047
*RES
1 *9589:Q *779:6 13.8 
2 *779:6 *779:10 9.17857 
3 *779:10 *9171:B 10.2464 
4 *779:10 *9340:B 13.9607 
5 *779:6 *9337:A 18.6214 
*END

*D_NET *780 0.00249406
*CONN
*I *9809:A I *D sky130_fd_sc_hd__dlygate4sd3_1
*I *9171:A I *D sky130_fd_sc_hd__or2_1
*I *9590:Q O *D sky130_fd_sc_hd__dfrtp_1
*CAP
1 *9809:A 0.000223152
2 *9171:A 0.000624833
3 *9590:Q 0
4 *780:4 0.000847985
5 *9171:A *9347:A1 1.3701e-05
6 *9171:B *9171:A 0.00010096
7 *9340:A *9171:A 0.000181956
8 *9340:B *9171:A 0.000438128
9 *9342:A2 *9171:A 4.59075e-05
10 *9811:A *9171:A 1.74352e-05
*RES
1 *9590:Q *780:4 9.3 
2 *780:4 *9171:A 28.3893 
3 *780:4 *9809:A 13.0321 
*END

*D_NET *781 0.00342979
*CONN
*I *9172:B I *D sky130_fd_sc_hd__or3_2
*I *9347:A1 I *D sky130_fd_sc_hd__o21a_1
*I *9343:A I *D sky130_fd_sc_hd__nor2_1
*I *9344:A I *D sky130_fd_sc_hd__and2_1
*I *9591:Q O *D sky130_fd_sc_hd__dfrtp_1
*CAP
1 *9172:B 7.14441e-05
2 *9347:A1 0.000233178
3 *9343:A 1.99857e-05
4 *9344:A 4.22731e-05
5 *9591:Q 0
6 *781:14 0.000163771
7 *781:8 0.000454044
8 *781:6 0.000190797
9 *1179:DIODE *781:8 2.28335e-05
10 *1179:DIODE *781:14 2.79092e-05
11 *9171:A *9347:A1 1.3701e-05
12 *9172:C *781:8 8.66324e-05
13 *9339:A *9172:B 0.0002617
14 *9339:A *9343:A 1.04232e-05
15 *9339:A *781:8 0.000306637
16 *9339:A *781:14 0.000135304
17 *9342:A2 *9347:A1 1.24368e-05
18 *9344:B *9344:A 5.71472e-05
19 *9345:A1 *9344:A 1.39726e-05
20 *9345:B1 *9347:A1 9.55252e-05
21 *9347:A2 *9347:A1 0.000386892
22 *9348:C *9347:A1 5.33433e-05
23 *9590:CLK *9172:B 7.83587e-05
24 *9590:CLK *781:8 8.25098e-05
25 *331:8 *9347:A1 1.38323e-05
26 *331:14 *9347:A1 0.000135028
27 *599:30 *9172:B 0.000193592
28 *675:12 *9344:A 0.0001399
29 *675:12 *781:14 8.66063e-05
30 *751:24 *781:14 4.00121e-05
*RES
1 *9591:Q *781:6 13.8 
2 *781:6 *781:8 4.07143 
3 *781:8 *781:14 7.39286 
4 *781:14 *9344:A 10.6571 
5 *781:14 *9343:A 9.72857 
6 *781:8 *9347:A1 19.7107 
7 *781:6 *9172:B 17.2643 
*END

*D_NET *782 0.00254289
*CONN
*I *9172:A I *D sky130_fd_sc_hd__or3_2
*I *9347:B1 I *D sky130_fd_sc_hd__o21a_1
*I *9592:Q O *D sky130_fd_sc_hd__dfrtp_1
*CAP
1 *9172:A 0.00031908
2 *9347:B1 0.000298672
3 *9592:Q 0
4 *782:4 0.000617752
5 *1180:DIODE *9347:B1 0
6 *9337:B *9172:A 6.35826e-05
7 *9338:C *9172:A 4.87854e-05
8 *9341:C *9172:A 9.41642e-05
9 *9348:A *9347:B1 0.000106533
10 *9348:C *9172:A 0.000148196
11 *9348:C *9347:B1 5.52238e-05
12 *9349:B1 *9172:A 2.28598e-05
13 *9589:D *9172:A 7.43578e-06
14 *9591:D *9347:B1 6.74911e-05
15 *332:10 *9172:A 0.000268396
16 *599:45 *9172:A 1.1152e-05
17 *599:51 *9172:A 9.99644e-06
18 *599:51 *9347:B1 1.40415e-05
19 *709:14 *9347:B1 0.000243052
20 *719:14 *9172:A 0.000146474
*RES
1 *9592:Q *782:4 9.3 
2 *782:4 *9347:B1 25.2643 
3 *782:4 *9172:A 25.425 
*END

*D_NET *783 0.00664657
*CONN
*I *9815:A I *D sky130_fd_sc_hd__dlygate4sd3_1
*I *9221:B2 I *D sky130_fd_sc_hd__a22o_1
*I *9316:B I *D sky130_fd_sc_hd__and3_1
*I *9507:A2 I *D sky130_fd_sc_hd__a32o_1
*I *9500:A I *D sky130_fd_sc_hd__nor2_1
*I *9673:Q O *D sky130_fd_sc_hd__dfrtp_1
*CAP
1 *9815:A 0
2 *9221:B2 0.000306554
3 *9316:B 0.000323
4 *9507:A2 8.05964e-05
5 *9500:A 0.000105211
6 *9673:Q 0
7 *783:55 0.00112145
8 *783:14 0.000421081
9 *783:10 0.000652614
10 *783:4 0.000909235
11 *9221:B2 *9821:A 0.00010096
12 *9316:B *9316:C 0.000147991
13 *9500:A *9512:B1 0
14 *9507:A2 *9503:B1 5.15193e-05
15 *9507:A2 *784:46 3.18676e-05
16 *783:14 *9512:B1 0
17 *9237:A *783:55 0.000274288
18 *9237:B *9221:B2 0.000116545
19 *9503:A1 *9507:A2 1.97695e-05
20 *9504:B1 *9507:A2 0.000230475
21 *9505:B *9500:A 1.33343e-05
22 *9506:A *783:10 6.07232e-05
23 *9506:A *783:14 1.721e-05
24 *9507:B1 *9507:A2 2.57162e-05
25 *9507:B1 *783:10 4.06782e-05
26 *9507:B1 *783:14 9.60188e-05
27 *9507:B2 *9507:A2 9.80173e-05
28 *9507:B2 *783:10 9.25014e-06
29 *9507:B2 *783:14 0.000408182
30 *9508:A *783:55 2.28598e-05
31 *9512:A1 *9500:A 0.000170938
32 *9512:A1 *9507:A2 2.22043e-05
33 *9673:CLK *783:55 5.71472e-05
34 *9675:CLK *9316:B 0.00014183
35 *9814:A *783:14 0.000125724
36 *337:243 *9221:B2 2.60984e-05
37 *538:59 *9221:B2 0.000128154
38 *549:16 *9500:A 2.44318e-05
39 *662:10 *9221:B2 0
40 *662:10 *783:55 2.89016e-05
41 *741:164 *783:10 5.52302e-05
42 *741:164 *783:55 0.00018077
*RES
1 *9673:Q *783:4 9.3 
2 *783:4 *783:10 6.67857 
3 *783:10 *783:14 6.58036 
4 *783:14 *9500:A 16.2375 
5 *783:14 *9507:A2 17.0946 
6 *783:10 *9316:B 19.9964 
7 *783:4 *783:55 12.0714 
8 *783:55 *9221:B2 24.8714 
9 *783:55 *9815:A 9.3 
*END

*D_NET *784 0.00581129
*CONN
*I *9316:A I *D sky130_fd_sc_hd__and3_1
*I *9503:B1 I *D sky130_fd_sc_hd__o21a_1
*I *9507:A1 I *D sky130_fd_sc_hd__a32o_1
*I *9502:A I *D sky130_fd_sc_hd__inv_2
*I *9224:B2 I *D sky130_fd_sc_hd__a22o_1
*I *9674:Q O *D sky130_fd_sc_hd__dfrtp_2
*CAP
1 *9316:A 0.000109785
2 *9503:B1 7.08748e-05
3 *9507:A1 1.11927e-05
4 *9502:A 0
5 *9224:B2 0.000425107
6 *9674:Q 0.000259149
7 *784:46 0.000163882
8 *784:37 0.000261307
9 *784:29 0.000903051
10 *784:10 0.00129803
11 *9224:B2 *9218:B2 0
12 *9316:A *863:54 0
13 *784:37 *863:54 0
14 *9224:B1 *9224:B2 3.18676e-05
15 *9225:B *9224:B2 0
16 *9233:A2 *9224:B2 0
17 *9240:B *9224:B2 0
18 *9503:A1 *9503:B1 3.57366e-05
19 *9504:A1 *784:37 9.60875e-05
20 *9504:A2 *9503:B1 0.000265447
21 *9504:A2 *784:37 1.5424e-05
22 *9504:A2 *784:46 0.000314139
23 *9504:A3 *784:37 4.1331e-06
24 *9504:B1 *784:37 7.16452e-05
25 *9504:B1 *784:46 0.000114388
26 *9507:A2 *9503:B1 5.15193e-05
27 *9507:A2 *784:46 3.18676e-05
28 *9507:B1 *9503:B1 2.39852e-05
29 *9507:B2 *9503:B1 9.60875e-05
30 *9513:A1 *9316:A 0.000177234
31 *9513:A3 *784:29 0.00014285
32 *9513:B1 *9316:A 2.61337e-05
33 *9513:B1 *784:37 7.50601e-05
34 *9674:D *784:29 0.000154354
35 *9674:RESET_B *784:10 0.000176027
36 *9678:CLK *9316:A 0.000104974
37 *337:267 *9224:B2 0
38 *337:273 *9224:B2 0
39 *337:306 *9224:B2 0
40 *337:325 *9224:B2 0
41 *348:45 *9224:B2 0
42 *348:60 *9224:B2 0
43 *369:92 *9224:B2 0
44 *369:92 *784:10 0.00021843
45 *369:184 *9224:B2 6.19965e-06
46 *438:10 *9316:A 0
47 *538:16 *9503:B1 3.69047e-06
48 *596:21 *784:10 4.46916e-05
49 *596:21 *784:29 2.69359e-05
*RES
1 *9674:Q *784:10 14.3893 
2 *784:10 *9224:B2 25.7643 
3 *784:10 *784:29 12.0179 
4 *784:29 *784:37 8.33929 
5 *784:37 *9502:A 9.3 
6 *784:37 *784:46 3.42857 
7 *784:46 *9507:A1 9.72857 
8 *784:46 *9503:B1 12.3179 
9 *784:29 *9316:A 16.6571 
*END

*D_NET *785 0.0110357
*CONN
*I *9813:A I *D sky130_fd_sc_hd__dlygate4sd3_1
*I *9227:B2 I *D sky130_fd_sc_hd__a22o_1
*I *9316:C I *D sky130_fd_sc_hd__and3_1
*I *9675:Q O *D sky130_fd_sc_hd__dfrtp_1
*CAP
1 *9813:A 5.40935e-05
2 *9227:B2 0.000185579
3 *9316:C 0.000804811
4 *9675:Q 0
5 *785:33 0.00157291
6 *785:29 0.00173857
7 *785:4 0.00110196
8 *9227:B2 *9082:A 0.000105163
9 *785:33 *9082:A 0
10 *785:33 *9465:A 0
11 *785:33 *817:23 0
12 *785:33 *819:27 5.73285e-05
13 *785:33 *819:44 0.000162598
14 *9138:A *785:33 0.000165306
15 *9147:A *785:33 0.000350936
16 *9151:C1 *785:33 0
17 *9227:A1 *9227:B2 1.74352e-05
18 *9246:A *9227:B2 0
19 *9316:B *9316:C 0.000147991
20 *9319:B *785:33 0.000193239
21 *9480:A1 *785:33 0.000311766
22 *9480:B2 *785:33 0.000114237
23 *9507:B2 *9316:C 0.000121958
24 *9507:B2 *785:29 0.000315165
25 *9508:B *9316:C 2.26327e-05
26 *9673:D *785:33 9.31149e-05
27 *9675:CLK *9316:C 0.00014183
28 *9678:RESET_B *9316:C 0
29 *310:10 *785:33 0.000115602
30 *322:45 *785:33 0
31 *344:208 *785:33 0
32 *369:280 *9227:B2 0
33 *440:16 *785:33 2.15363e-05
34 *537:14 *785:33 8.359e-05
35 *537:360 *785:33 6.58945e-05
36 *539:10 *9813:A 5.33005e-05
37 *539:10 *785:33 0.000358853
38 *539:16 *785:33 0.000123295
39 *539:31 *785:33 0
40 *539:60 *785:33 0.000108136
41 *549:8 *9316:C 9.25014e-06
42 *566:44 *785:33 0.00115769
43 *566:48 *785:33 0.00047497
44 *603:10 *785:33 0.00024095
45 *605:10 *9227:B2 0.000134192
46 *605:10 *785:33 0.00014627
47 *662:10 *785:33 1.17968e-05
48 *737:22 *9316:C 2.72545e-05
49 *739:221 *785:33 0.000124534
50 *741:166 *9316:C 0
*RES
1 *9675:Q *785:4 9.3 
2 *785:4 *9316:C 30.0232 
3 *785:4 *785:29 5.375 
4 *785:29 *785:33 45.9107 
5 *785:33 *9227:B2 18.4607 
6 *785:29 *9813:A 10.2464 
*END

*D_NET *786 0.00650094
*CONN
*I *9509:S I *D sky130_fd_sc_hd__mux2_1
*I *9317:A I *D sky130_fd_sc_hd__nand3_1
*I *9825:A I *D sky130_fd_sc_hd__dlygate4sd3_1
*I *9230:B2 I *D sky130_fd_sc_hd__a22o_1
*I *9676:Q O *D sky130_fd_sc_hd__dfrtp_1
*CAP
1 *9509:S 0
2 *9317:A 0.000177647
3 *9825:A 0
4 *9230:B2 0.000685073
5 *9676:Q 0.000114608
6 *786:40 0.000584247
7 *786:29 0.000621734
8 *786:10 0.00101482
9 *9230:B2 *963:DIODE 0.00014285
10 *964:DIODE *9230:B2 0.000148196
11 *980:DIODE *9230:B2 4.1331e-06
12 *980:DIODE *786:10 2.59795e-05
13 *1006:DIODE *9230:B2 0
14 *9219:B *9230:B2 0
15 *9230:A1 *9230:B2 0.00018372
16 *9231:B *9230:B2 0.000316901
17 *9231:B *786:10 1.02504e-05
18 *9232:A *786:10 8.00806e-05
19 *9506:A *786:40 0
20 *9506:B *786:40 0
21 *9507:A3 *9317:A 0.000360109
22 *9507:A3 *786:40 4.56437e-05
23 *9507:B1 *9317:A 0.000172528
24 *9510:A *786:40 0
25 *9676:CLK *786:40 0
26 *9676:RESET_B *786:10 7.252e-05
27 *9678:CLK *9317:A 0.000137983
28 *337:339 *9230:B2 4.43142e-05
29 *348:12 *9230:B2 5.16852e-05
30 *348:20 *786:29 7.66715e-05
31 *348:28 *786:29 0.000186669
32 *348:35 *786:29 4.18895e-05
33 *348:99 *786:29 0.000130419
34 *348:99 *786:40 0.000797099
35 *369:138 *9230:B2 7.96236e-05
36 *381:8 *9230:B2 5.7431e-05
37 *439:6 *9317:A 4.88631e-05
38 *546:8 *9317:A 1.31516e-05
39 *546:8 *786:40 7.40992e-05
40 *741:130 *9230:B2 0
*RES
1 *9676:Q *786:10 16.2821 
2 *786:10 *9230:B2 25.9964 
3 *786:10 *786:29 9.57143 
4 *786:29 *9825:A 9.3 
5 *786:29 *786:40 14.875 
6 *786:40 *9317:A 19.8357 
7 *786:40 *9509:S 13.8 
*END

*D_NET *787 0.00492133
*CONN
*I *9512:B1 I *D sky130_fd_sc_hd__o21a_1
*I *9317:B I *D sky130_fd_sc_hd__nand3_1
*I *9233:B2 I *D sky130_fd_sc_hd__a22o_1
*I *9677:Q O *D sky130_fd_sc_hd__dfrtp_1
*CAP
1 *9512:B1 0.000332591
2 *9317:B 0
3 *9233:B2 0.000324589
4 *9677:Q 0.000313082
5 *787:27 0.000911363
6 *787:6 0.00121644
7 *9233:B2 *9218:B2 0.000335215
8 *9233:A1 *9233:B2 8.27184e-06
9 *9500:A *9512:B1 0
10 *9504:A2 *9233:B2 0
11 *9504:A3 *9512:B1 0
12 *9504:B1 *9233:B2 0
13 *9507:A3 *9512:B1 0.000110835
14 *9507:A3 *787:27 7.0368e-05
15 *9513:A1 *9233:B2 0
16 *9513:A3 *9512:B1 5.52302e-05
17 *9675:D *787:27 5.01117e-05
18 *9677:D *9233:B2 0
19 *9677:RESET_B *787:6 2.07491e-05
20 *9826:A *9233:B2 0.000127446
21 *337:261 *9512:B1 2.27416e-05
22 *337:315 *9233:B2 4.71072e-05
23 *337:339 *787:6 5.33005e-05
24 *348:39 *9233:B2 4.06782e-05
25 *438:10 *787:27 0.000124957
26 *438:34 *787:27 3.92757e-05
27 *596:8 *9233:B2 7.2754e-05
28 *596:45 *9233:B2 2.14474e-05
29 *741:164 *787:6 0.000170955
30 *741:164 *787:27 0.000451815
31 *783:14 *9512:B1 0
*RES
1 *9677:Q *787:6 13.5321 
2 *787:6 *9233:B2 26.175 
3 *787:6 *787:27 14.4464 
4 *787:27 *9317:B 13.8 
5 *787:27 *9512:B1 19.8536 
*END

*D_NET *788 0.00171984
*CONN
*I *9821:A I *D sky130_fd_sc_hd__dlygate4sd3_1
*I *9236:B2 I *D sky130_fd_sc_hd__a22o_1
*I *9319:A I *D sky130_fd_sc_hd__or3_2
*I *9678:Q O *D sky130_fd_sc_hd__dfrtp_1
*CAP
1 *9821:A 0.000131758
2 *9236:B2 0
3 *9319:A 0.000150433
4 *9678:Q 0
5 *788:8 0.000220257
6 *788:4 0.000201582
7 *9221:B2 *9821:A 0.00010096
8 *9501:A1 *9319:A 1.02504e-05
9 *9501:A1 *788:8 4.56437e-05
10 *9514:B1 *788:8 8.00806e-05
11 *337:243 *9319:A 1.41029e-05
12 *337:243 *9821:A 0.000122101
13 *337:243 *788:8 3.90513e-05
14 *337:253 *9319:A 5.24274e-05
15 *440:25 *9319:A 1.97695e-05
16 *538:59 *788:8 0
17 *539:16 *9319:A 0.000153167
18 *662:10 *788:8 0.000153054
19 *737:10 *9319:A 4.9071e-05
20 *737:22 *9319:A 0.000176129
*RES
1 *9678:Q *788:4 9.3 
2 *788:4 *788:8 7.05357 
3 *788:8 *9319:A 18.0679 
4 *788:8 *9236:B2 13.8 
5 *788:4 *9821:A 12.3 
*END

*D_NET *789 0.015418
*CONN
*I *9515:A1 I *D sky130_fd_sc_hd__mux2_1
*I *9134:A_N I *D sky130_fd_sc_hd__and3b_1
*I *9070:A I *D sky130_fd_sc_hd__xnor2_2
*I *9181:B2 I *D sky130_fd_sc_hd__a221o_1
*I *9084:A I *D sky130_fd_sc_hd__xnor2_1
*I *9679:Q O *D sky130_fd_sc_hd__dfrtp_4
*CAP
1 *9515:A1 0.000223945
2 *9134:A_N 0.000177007
3 *9070:A 0
4 *9181:B2 0.00104488
5 *9084:A 0.000192402
6 *9679:Q 0.000302017
7 *789:29 0.00122818
8 *789:20 0.000577087
9 *789:16 0.00173482
10 *789:10 0.00188238
11 *9134:A_N *9134:C 0.000186765
12 *9134:A_N *814:37 0.000525934
13 *9181:B2 *9249:A1 0.000106924
14 *9181:B2 *791:92 0
15 *9181:B2 *791:96 0
16 *9181:B2 *791:108 0.0011633
17 *9181:B2 *810:8 0.000123986
18 *9515:A1 *9517:A1 0.000186247
19 *9515:A1 *840:25 5.33005e-05
20 *789:10 *790:10 0
21 *789:16 *9495:A1 6.92626e-05
22 *789:16 *9521:A1 1.78447e-05
23 *789:16 *9837:A 0
24 *789:16 *791:46 0
25 *789:16 *792:10 0.000154401
26 *789:16 *792:67 6.53781e-05
27 *789:20 *791:64 2.60158e-05
28 *789:20 *791:79 7.92879e-05
29 *789:20 *792:33 3.10345e-05
30 *1108:DIODE *789:20 0
31 *9071:B *9084:A 0.00011982
32 *9084:B *9084:A 0.000185541
33 *9181:B1 *9181:B2 3.04785e-05
34 *9181:C1 *9181:B2 5.80706e-06
35 *9204:A2 *9181:B2 6.74911e-05
36 *9243:B *9181:B2 4.38511e-05
37 *9485:A1 *789:16 0.000168939
38 *9485:A1 *789:20 0.000110509
39 *9485:B2 *789:16 0.000699853
40 *9485:B2 *789:20 0.000175512
41 *9493:B2 *789:16 0.000147474
42 *9516:A *9515:A1 7.86956e-05
43 *9517:A0 *9515:A1 9.77274e-05
44 *9517:A0 *789:10 0.000317602
45 *9517:S *9515:A1 0
46 *9519:A0 *789:16 4.16383e-05
47 *9519:S *789:16 9.87983e-06
48 *9531:A0 *789:16 9.85583e-05
49 *9625:CLK *9181:B2 2.84494e-05
50 *9665:RESET_B *789:10 0
51 *9681:D *789:16 7.83659e-05
52 *246:10 *789:20 0
53 *299:27 *9181:B2 0
54 *337:165 *9181:B2 8.66619e-06
55 *344:89 *9181:B2 0.00063816
56 *344:100 *9181:B2 0.000250201
57 *344:113 *9181:B2 0.000407978
58 *344:126 *9181:B2 0.000220086
59 *348:171 *9181:B2 0.000166008
60 *348:179 *9181:B2 2.09495e-05
61 *391:26 *9181:B2 2.21972e-05
62 *442:90 *9515:A1 0.000431365
63 *442:102 *789:16 1.12301e-05
64 *442:104 *789:16 8.40351e-06
65 *442:106 *789:16 0.000255876
66 *442:108 *789:16 7.6021e-05
67 *442:114 *789:16 7.6021e-05
68 *625:10 *789:16 0.000166269
69 *732:48 *9181:B2 0
70 *746:8 *789:16 0
71 *746:32 *789:16 0
72 *746:42 *789:16 0
73 *746:49 *789:16 0
74 *746:118 *789:10 0
75 *746:118 *789:16 0
*RES
1 *9679:Q *789:10 19.7286 
2 *789:10 *789:16 32.3571 
3 *789:16 *789:20 9.48214 
4 *789:20 *9084:A 13.5321 
5 *789:20 *789:29 2.58929 
6 *789:29 *9181:B2 47.8536 
7 *789:29 *9070:A 9.3 
8 *789:16 *9134:A_N 18.8536 
9 *789:10 *9515:A1 20.925 
*END

*D_NET *790 0.0119035
*CONN
*I *9517:A1 I *D sky130_fd_sc_hd__mux2_1
*I *9134:B I *D sky130_fd_sc_hd__and3b_1
*I *9083:B I *D sky130_fd_sc_hd__xor2_2
*I *9192:B2 I *D sky130_fd_sc_hd__a22o_1
*I *9680:Q O *D sky130_fd_sc_hd__dfrtp_4
*CAP
1 *9517:A1 6.61265e-05
2 *9134:B 0
3 *9083:B 0
4 *9192:B2 0
5 *9680:Q 0.000207643
6 *790:24 0.00202663
7 *790:20 0.00240962
8 *790:14 0.0021663
9 *790:10 0.00205707
10 *790:14 *9493:A1 0
11 *790:14 *791:46 0.000156701
12 *790:14 *791:64 1.23511e-05
13 *790:20 *814:29 9.35794e-06
14 *790:20 *814:37 0.000117016
15 *790:24 *792:49 9.20044e-05
16 *790:24 *793:26 0
17 *1107:DIODE *790:20 5.49489e-05
18 *9085:B *790:24 0.000121415
19 *9106:A *790:24 5.58603e-05
20 *9136:C *790:14 0.000123495
21 *9202:B1 *790:24 7.68318e-05
22 *9485:B1 *790:20 2.93215e-05
23 *9485:B1 *790:24 5.37741e-06
24 *9493:A2 *790:14 1.50171e-05
25 *9515:A1 *9517:A1 0.000186247
26 *9516:A *790:10 0
27 *9517:A0 *9517:A1 5.71472e-05
28 *9517:A0 *790:10 0
29 *9521:A0 *790:14 0.000115361
30 *9680:RESET_B *790:10 0.00023006
31 *9682:D *790:14 0
32 *9779:A *790:14 0
33 *337:22 *790:24 0.000114142
34 *337:32 *790:24 3.43995e-05
35 *344:61 *790:24 0.000216194
36 *344:65 *790:24 0.000253398
37 *344:78 *790:24 0.000111314
38 *442:102 *790:14 0
39 *442:108 *790:14 0
40 *540:378 *790:14 0
41 *540:378 *790:20 1.08847e-05
42 *540:380 *790:20 8.13491e-05
43 *541:226 *790:14 0
44 *541:232 *790:14 0.000121842
45 *541:382 *790:20 0
46 *584:14 *790:24 2.22164e-05
47 *635:19 *790:14 0.000545843
48 *789:10 *790:10 0
*RES
1 *9680:Q *790:10 17.6214 
2 *790:10 *790:14 35.8929 
3 *790:14 *790:20 10.6607 
4 *790:20 *790:24 43.4821 
5 *790:24 *9192:B2 9.3 
6 *790:20 *9083:B 4.5 
7 *790:14 *9134:B 9.3 
8 *790:10 *9517:A1 15.5679 
*END

*D_NET *791 0.0197745
*CONN
*I *906:DIODE I *D sky130_fd_sc_hd__diode_2
*I *9102:A I *D sky130_fd_sc_hd__xor2_2
*I *9136:B_N I *D sky130_fd_sc_hd__and4bb_1
*I *905:DIODE I *D sky130_fd_sc_hd__diode_2
*I *904:DIODE I *D sky130_fd_sc_hd__diode_2
*I *9089:A I *D sky130_fd_sc_hd__xor2_2
*I *946:DIODE I *D sky130_fd_sc_hd__diode_2
*I *9198:B2 I *D sky130_fd_sc_hd__a22o_1
*I *9091:B I *D sky130_fd_sc_hd__xor2_1
*I *909:DIODE I *D sky130_fd_sc_hd__diode_2
*I *9519:A1 I *D sky130_fd_sc_hd__mux2_1
*I *1142:DIODE I *D sky130_fd_sc_hd__diode_2
*I *9681:Q O *D sky130_fd_sc_hd__dfrtp_4
*CAP
1 *906:DIODE 0
2 *9102:A 0.000498547
3 *9136:B_N 6.55574e-05
4 *905:DIODE 0.000234603
5 *904:DIODE 0.000155955
6 *9089:A 0
7 *946:DIODE 1.83717e-05
8 *9198:B2 0.000171803
9 *9091:B 0
10 *909:DIODE 0
11 *9519:A1 0.000145691
12 *1142:DIODE 0
13 *9681:Q 0.000100965
14 *791:108 0.000985027
15 *791:100 0.000867664
16 *791:96 0.000599386
17 *791:92 0.000791458
18 *791:79 0.000496145
19 *791:64 0.000768179
20 *791:46 0.00114479
21 *791:40 0.00111951
22 *791:38 0.0010524
23 *791:19 0.00143989
24 *791:10 0.000342761
25 *904:DIODE *9089:B 0.000519862
26 *905:DIODE *9092:A 8.71847e-05
27 *9102:A *9521:A1 0.000254235
28 *791:38 *9073:B 1.58163e-05
29 *791:38 *792:67 1.39841e-05
30 *791:38 *835:14 5.31549e-05
31 *791:46 *9521:A1 8.15095e-05
32 *791:46 *9833:A 5.48581e-05
33 *791:46 *9837:A 0.000174805
34 *791:79 *792:33 0.000315471
35 *791:79 *792:49 5.52302e-05
36 *791:96 *9249:A1 0.000110434
37 *791:96 *810:8 0.000121671
38 *791:100 *9089:B 6.56534e-05
39 *935:DIODE *946:DIODE 5.52302e-05
40 *935:DIODE *9198:B2 0.000169359
41 *994:DIODE *904:DIODE 0.000274294
42 *1108:DIODE *791:64 3.34295e-05
43 *1150:DIODE *791:64 0.000175068
44 *9092:B *905:DIODE 2.59355e-05
45 *9092:B *791:92 0.00014285
46 *9093:A *791:79 0
47 *9093:B *791:79 9.90367e-05
48 *9093:B *791:92 5.97496e-05
49 *9136:C *791:64 5.94294e-05
50 *9136:D *9136:B_N 0.000271303
51 *9181:B2 *791:92 0
52 *9181:B2 *791:96 0
53 *9181:B2 *791:108 0.0011633
54 *9181:C1 *791:108 0.000102997
55 *9198:B1 *9198:B2 3.67257e-05
56 *9243:B *791:96 0.000103267
57 *9243:B *791:108 7.50601e-05
58 *9244:A *791:108 0
59 *9456:A2 *791:96 0.00038501
60 *9456:A2 *791:108 0
61 *9484:B2 *9136:B_N 0.000313192
62 *9485:A2 *791:79 0.00018372
63 *9485:B1 *791:64 0
64 *9485:B2 *791:46 0
65 *9485:B2 *791:64 1.0562e-05
66 *9486:A1 *791:38 9.16173e-05
67 *9487:A1 *791:38 0.000146474
68 *9488:B1 *791:38 7.80714e-06
69 *9519:S *9519:A1 5.71472e-05
70 *9521:A0 *9102:A 6.23604e-06
71 *9522:A *9102:A 0.000144222
72 *9625:D *791:108 0.000336317
73 *9667:D *9519:A1 1.58163e-05
74 *9667:D *791:19 6.4443e-05
75 *9667:D *791:38 0.000290979
76 *9763:A *791:10 0
77 *9789:A *9519:A1 7.32955e-05
78 *246:10 *791:64 1.08359e-05
79 *299:27 *791:92 7.80122e-05
80 *299:27 *791:96 0.00046763
81 *322:28 *791:100 1.02821e-05
82 *322:28 *791:108 2.89114e-05
83 *337:16 *9198:B2 1.00733e-05
84 *337:165 *791:108 0
85 *344:310 *9198:B2 0.000184745
86 *348:171 *791:79 1.01417e-05
87 *377:16 *791:108 0
88 *391:26 *791:96 5.7836e-06
89 *442:114 *791:38 0.000139913
90 *442:127 *791:38 0.000312209
91 *540:202 *791:38 6.8025e-05
92 *540:204 *791:38 7.50601e-05
93 *540:380 *791:64 0
94 *541:305 *791:38 0
95 *541:322 *791:10 0
96 *541:322 *791:38 0
97 *589:20 *791:38 0.000202128
98 *646:14 *791:38 0
99 *746:42 *791:38 0
100 *746:118 *791:38 0
101 *789:16 *791:46 0
102 *789:20 *791:64 2.60158e-05
103 *789:20 *791:79 7.92879e-05
104 *790:14 *791:46 0.000156701
105 *790:14 *791:64 1.23511e-05
*RES
1 *9681:Q *791:10 19.9429 
2 *791:10 *1142:DIODE 9.3 
3 *791:10 *791:19 4.44643 
4 *791:19 *9519:A1 12.3 
5 *791:19 *791:38 28.0179 
6 *791:38 *791:40 4.5 
7 *791:40 *791:46 13.2321 
8 *791:46 *791:64 13.625 
9 *791:64 *909:DIODE 9.3 
10 *791:64 *791:79 16.0893 
11 *791:79 *9091:B 9.3 
12 *791:79 *791:92 8.55357 
13 *791:92 *791:96 15.5536 
14 *791:96 *791:100 1.375 
15 *791:100 *791:108 28.7857 
16 *791:108 *9198:B2 13.4429 
17 *791:108 *946:DIODE 9.83571 
18 *791:100 *9089:A 9.3 
19 *791:96 *904:DIODE 14.3536 
20 *791:92 *905:DIODE 16.8 
21 *791:46 *9136:B_N 16.8 
22 *791:40 *9102:A 22.3893 
23 *791:38 *906:DIODE 9.3 
*END

*D_NET *792 0.0129354
*CONN
*I *9521:A1 I *D sky130_fd_sc_hd__mux2_1
*I *9073:B I *D sky130_fd_sc_hd__xor2_4
*I *9091:A I *D sky130_fd_sc_hd__xor2_1
*I *9202:B2 I *D sky130_fd_sc_hd__a22o_1
*I *9136:A_N I *D sky130_fd_sc_hd__and4bb_1
*I *9682:Q O *D sky130_fd_sc_hd__dfrtp_4
*CAP
1 *9521:A1 0.000145861
2 *9073:B 0.000337366
3 *9091:A 0
4 *9202:B2 0
5 *9136:A_N 0.000522129
6 *9682:Q 8.01107e-05
7 *792:67 0.00068198
8 *792:49 0.00157754
9 *792:33 0.00195144
10 *792:10 0.00126525
11 *792:8 0.000648084
12 *792:49 *793:26 0
13 *952:DIODE *792:49 2.27416e-05
14 *1110:DIODE *792:8 1.33343e-05
15 *9093:B *792:49 9.47712e-05
16 *9102:A *9521:A1 0.000254235
17 *9202:B1 *792:49 1.00332e-05
18 *9484:B2 *9136:A_N 0.000370598
19 *9485:A1 *792:10 4.46186e-06
20 *9485:A1 *792:33 8.03554e-05
21 *9486:A1 *792:10 0.000248486
22 *9486:A1 *792:67 0.00017309
23 *9521:A0 *9521:A1 3.466e-06
24 *9521:S *9521:A1 0.00010096
25 *9531:A0 *792:10 0.000265018
26 *9625:CLK *792:49 0
27 *9638:CLK *792:49 0.000555137
28 *9638:RESET_B *792:49 0.000343778
29 *9657:D *792:10 9.95264e-05
30 *9657:D *792:33 0.000289571
31 *9682:RESET_B *792:8 4.58194e-05
32 *9686:D *792:33 8.00806e-05
33 *9723:A *792:49 1.21859e-05
34 *299:16 *9136:A_N 4.72917e-05
35 *299:16 *792:10 0.000147474
36 *337:216 *792:49 0.000362825
37 *347:103 *792:49 0.000657842
38 *348:161 *792:8 1.02936e-05
39 *348:161 *792:10 0
40 *348:171 *792:33 0.000294586
41 *348:171 *792:49 0
42 *442:114 *9521:A1 0.000102545
43 *442:114 *792:67 7.61932e-05
44 *442:127 *792:67 4.58976e-05
45 *625:10 *792:10 5.08481e-05
46 *721:14 *792:49 7.69776e-06
47 *746:8 *792:67 1.17968e-05
48 *789:16 *9521:A1 1.78447e-05
49 *789:16 *792:10 0.000154401
50 *789:16 *792:67 6.53781e-05
51 *789:20 *792:33 3.10345e-05
52 *790:24 *792:49 9.20044e-05
53 *791:38 *9073:B 1.58163e-05
54 *791:38 *792:67 1.39841e-05
55 *791:46 *9521:A1 8.15095e-05
56 *791:79 *792:33 0.000315471
57 *791:79 *792:49 5.52302e-05
*RES
1 *9682:Q *792:8 15.1571 
2 *792:8 *792:10 10.1429 
3 *792:10 *9136:A_N 20.9429 
4 *792:10 *792:33 14.9286 
5 *792:33 *792:49 47.2321 
6 *792:49 *9202:B2 13.8 
7 *792:33 *9091:A 9.3 
8 *792:8 *792:67 9.64286 
9 *792:67 *9073:B 14.3536 
10 *792:67 *9521:A1 22.8714 
*END

*D_NET *793 0.0139579
*CONN
*I *9523:A1 I *D sky130_fd_sc_hd__mux2_1
*I *9073:A I *D sky130_fd_sc_hd__xor2_4
*I *9135:D I *D sky130_fd_sc_hd__and4b_1
*I *9066:A I *D sky130_fd_sc_hd__xnor2_2
*I *9205:B2 I *D sky130_fd_sc_hd__a22o_1
*I *9683:Q O *D sky130_fd_sc_hd__dfrtp_4
*CAP
1 *9523:A1 0.000153786
2 *9073:A 0
3 *9135:D 0
4 *9066:A 0.000193397
5 *9205:B2 0.000182525
6 *9683:Q 0.000107461
7 *793:43 0.000251569
8 *793:26 0.00218408
9 *793:22 0.00255312
10 *793:20 0.000823508
11 *793:10 0.000591362
12 *9066:A *9135:A_N 0.00010096
13 *9066:A *9135:B 5.52302e-05
14 *9066:A *9484:A1 0.000840634
15 *9066:A *794:47 5.71472e-05
16 *9066:A *794:54 0.000486435
17 *793:10 *9537:A0 5.33005e-05
18 *793:26 *9083:A 0
19 *793:26 *9135:C 0
20 *793:26 *795:60 0.000113307
21 *793:43 *9484:A1 4.06427e-05
22 *9075:A *793:20 1.02806e-05
23 *9085:A *793:26 0.000172021
24 *9086:B *793:26 6.26559e-05
25 *9103:A *793:22 0
26 *9103:B *793:20 0
27 *9105:A *793:26 0
28 *9106:A *793:26 6.53781e-05
29 *9106:B *793:26 6.8646e-06
30 *9119:B *793:26 0.000219117
31 *9202:B1 *793:26 0
32 *9213:B1 *9205:B2 6.77229e-05
33 *9214:B1 *9205:B2 8.1244e-05
34 *9484:A2 *793:43 5.33005e-05
35 *9523:A0 *9523:A1 0.000102207
36 *9656:CLK *793:22 0
37 *9656:D *793:22 0.000173941
38 *9682:CLK *793:22 0
39 *9682:D *793:20 0
40 *9682:D *793:22 0
41 *9779:A *793:22 0
42 *9779:A *793:26 0
43 *232:18 *793:10 0.00015134
44 *232:18 *793:20 0.000171368
45 *240:8 *793:26 0.000364253
46 *241:10 *793:26 0.000144372
47 *269:8 *793:26 0.000906153
48 *336:10 *9205:B2 0
49 *337:32 *793:26 0
50 *344:36 *9205:B2 3.4846e-06
51 *344:53 *9205:B2 1.34698e-05
52 *344:53 *793:26 0.000173083
53 *344:61 *793:26 0
54 *348:161 *793:20 0.000141985
55 *373:12 *793:20 0.000312215
56 *442:374 *9523:A1 5.52302e-05
57 *442:381 *9523:A1 0.000229456
58 *442:390 *9523:A1 0.000230475
59 *540:378 *793:26 0
60 *541:91 *793:10 0
61 *541:91 *793:20 0
62 *541:366 *793:22 0.00079348
63 *541:372 *793:22 2.24646e-05
64 *541:372 *793:26 0.000126439
65 *541:382 *793:26 0.000142317
66 *736:16 *793:26 0.000173097
67 *790:24 *793:26 0
68 *792:49 *793:26 0
*RES
1 *9683:Q *793:10 16.2821 
2 *793:10 *793:20 16.625 
3 *793:20 *793:22 12.2679 
4 *793:22 *793:26 49.8571 
5 *793:26 *9205:B2 21.1036 
6 *793:22 *793:43 5.74554 
7 *793:43 *9066:A 17.8937 
8 *793:43 *9135:D 9.3 
9 *793:20 *9073:A 13.8 
10 *793:10 *9523:A1 18.4429 
*END

*D_NET *794 0.0176833
*CONN
*I *9069:A I *D sky130_fd_sc_hd__xnor2_4
*I *902:DIODE I *D sky130_fd_sc_hd__diode_2
*I *1146:DIODE I *D sky130_fd_sc_hd__diode_2
*I *9525:A1 I *D sky130_fd_sc_hd__mux2_1
*I *903:DIODE I *D sky130_fd_sc_hd__diode_2
*I *9074:A I *D sky130_fd_sc_hd__xor2_4
*I *9135:A_N I *D sky130_fd_sc_hd__and4b_1
*I *908:DIODE I *D sky130_fd_sc_hd__diode_2
*I *9066:B I *D sky130_fd_sc_hd__xnor2_2
*I *901:DIODE I *D sky130_fd_sc_hd__diode_2
*I *957:DIODE I *D sky130_fd_sc_hd__diode_2
*I *9209:B2 I *D sky130_fd_sc_hd__a22o_1
*I *9684:Q O *D sky130_fd_sc_hd__dfrtp_4
*CAP
1 *9069:A 0.000310746
2 *902:DIODE 0
3 *1146:DIODE 0
4 *9525:A1 0
5 *903:DIODE 0
6 *9074:A 0.000448443
7 *9135:A_N 3.14505e-05
8 *908:DIODE 0
9 *9066:B 0
10 *901:DIODE 0
11 *957:DIODE 0
12 *9209:B2 0.000475474
13 *9684:Q 2.52229e-05
14 *794:82 0.000645116
15 *794:74 0.000724314
16 *794:72 0.000675973
17 *794:70 0.000536496
18 *794:54 0.000224983
19 *794:47 0.000317662
20 *794:40 0.000145307
21 *794:22 0.000774035
22 *794:18 0.00243546
23 *794:12 0.00301575
24 *794:8 0.000960315
25 *9209:B2 *9209:A1 0.00023702
26 *794:8 *9497:A1 5.52238e-05
27 *794:12 *9067:B 0
28 *794:12 *9489:A1 2.8833e-05
29 *794:12 *9527:A1 6.97972e-05
30 *794:12 *846:12 0.000148903
31 *794:18 *9457:S 0
32 *794:18 *9484:A1 0.000123673
33 *794:22 *857:35 3.97657e-05
34 *794:40 *9484:A1 2.89114e-05
35 *794:47 *9484:A1 0.000142053
36 *794:70 *9489:A1 4.35048e-05
37 *9066:A *9135:A_N 0.00010096
38 *9066:A *794:47 5.71472e-05
39 *9066:A *794:54 0.000486435
40 *9068:B *794:12 0
41 *9080:B *794:18 0.00010326
42 *9097:B *794:18 0
43 *9125:A *794:18 0.000132617
44 *9125:B *794:18 0.000331824
45 *9133:B *794:18 0
46 *9133:C *794:18 0
47 *9209:A2 *9209:B2 0.000198352
48 *9209:A2 *794:22 7.32955e-05
49 *9209:B1 *9209:B2 0
50 *9249:B2 *794:18 5.24274e-05
51 *9498:B2 *794:12 0
52 *9524:A *794:12 4.15914e-05
53 *9525:A0 *794:74 0.00018372
54 *9527:A0 *794:12 7.83659e-05
55 *9580:A2 *794:18 0
56 *9637:D *794:18 0
57 *9669:D *9074:A 3.92757e-05
58 *9670:CLK *9074:A 4.87854e-05
59 *9670:CLK *794:82 2.28598e-05
60 *9683:CLK *9074:A 7.89576e-05
61 *9683:RESET_B *794:12 0
62 *9685:RESET_B *794:12 0.00022868
63 *9685:RESET_B *794:18 0
64 *235:12 *794:18 0.000370603
65 *274:10 *794:18 0
66 *337:32 *9209:B2 1.21289e-05
67 *337:34 *9209:B2 9.60875e-05
68 *337:46 *9209:B2 1.33343e-05
69 *344:144 *794:18 1.65558e-05
70 *344:146 *794:18 0.000526131
71 *344:152 *794:18 0.000171299
72 *344:152 *794:22 0.000102197
73 *383:12 *794:12 0.000293422
74 *442:10 *794:82 0.00045554
75 *442:354 *794:12 3.79197e-05
76 *442:374 *794:12 0.00010323
77 *541:41 *9074:A 1.13406e-05
78 *541:41 *794:82 0.000198698
79 *541:74 *794:12 0
80 *584:136 *794:12 0
81 *597:66 *794:18 0
82 *597:68 *794:18 0
83 *740:79 *794:18 0
84 *740:137 *794:74 9.28003e-05
85 *740:139 *794:12 0
86 *740:139 *794:70 0
87 *740:143 *794:12 0
88 *740:161 *794:12 5.10822e-05
89 *757:18 *9074:A 7.6644e-05
90 *757:18 *794:82 0.000131331
*RES
1 *9684:Q *794:8 14.3357 
2 *794:8 *794:12 24.3571 
3 *794:12 *794:18 49.6071 
4 *794:18 *794:22 8.73214 
5 *794:22 *9209:B2 16.8536 
6 *794:22 *957:DIODE 9.3 
7 *794:12 *794:40 0.535714 
8 *794:40 *901:DIODE 9.3 
9 *794:40 *794:47 3 
10 *794:47 *9066:B 9.3 
11 *794:47 *794:54 4.64286 
12 *794:54 *908:DIODE 9.3 
13 *794:54 *9135:A_N 10.2464 
14 *794:8 *794:70 6.14286 
15 *794:70 *794:72 1.76786 
16 *794:72 *794:74 6.69643 
17 *794:74 *794:82 15.4286 
18 *794:82 *9074:A 24.425 
19 *794:82 *903:DIODE 9.3 
20 *794:74 *9525:A1 9.3 
21 *794:72 *1146:DIODE 9.3 
22 *794:70 *902:DIODE 9.3 
23 *794:70 *9069:A 13.0321 
*END

*D_NET *795 0.0099936
*CONN
*I *9135:B I *D sky130_fd_sc_hd__and4b_1
*I *9077:B I *D sky130_fd_sc_hd__xor2_2
*I *9213:B2 I *D sky130_fd_sc_hd__a22o_1
*I *9067:A I *D sky130_fd_sc_hd__xor2_2
*I *9527:A1 I *D sky130_fd_sc_hd__mux2_1
*I *9685:Q O *D sky130_fd_sc_hd__dfrtp_4
*CAP
1 *9135:B 2.52056e-05
2 *9077:B 0
3 *9213:B2 0
4 *9067:A 0
5 *9527:A1 0.000107351
6 *9685:Q 3.34312e-05
7 *795:60 0.00178505
8 *795:50 0.00189239
9 *795:48 0.000565117
10 *795:22 0.000628312
11 *795:6 0.000986964
12 *795:48 *9135:C 4.46186e-06
13 *795:50 *9083:A 3.17067e-05
14 *795:50 *9135:C 7.48356e-05
15 *795:60 *9083:A 9.4736e-05
16 *795:60 *9119:A 0.000527801
17 *795:60 *9202:A1 7.76152e-05
18 *795:60 *9213:A1 8.85927e-05
19 *795:60 *859:31 0
20 *9066:A *9135:B 5.52302e-05
21 *9085:A *795:60 0
22 *9086:B *795:60 9.27129e-05
23 *9087:B *795:60 0.000197991
24 *9088:B *795:60 6.85873e-05
25 *9105:A *795:60 0.000382581
26 *9107:A *795:60 0
27 *9119:B *795:60 0.000110817
28 *231:10 *795:60 0
29 *231:16 *795:60 0
30 *232:18 *795:22 0.000104236
31 *232:18 *795:48 0
32 *232:18 *795:50 0
33 *232:18 *795:60 0
34 *240:8 *795:60 0
35 *241:10 *795:60 6.03001e-05
36 *248:10 *795:60 0.00013835
37 *249:10 *795:60 0.000342488
38 *256:14 *795:60 0.000362538
39 *258:8 *795:60 0
40 *266:8 *795:22 0.000198698
41 *269:8 *795:60 0.000357321
42 *344:36 *795:60 0
43 *344:53 *795:60 0.000112623
44 *383:14 *795:6 1.58163e-05
45 *383:14 *795:48 9.77061e-05
46 *442:354 *9527:A1 0.000128161
47 *442:354 *795:22 2.89016e-05
48 *541:83 *9527:A1 3.18676e-05
49 *541:366 *795:48 0
50 *793:26 *795:60 0.000113307
51 *794:12 *9527:A1 6.97972e-05
*RES
1 *9685:Q *795:6 9.83571 
2 *795:6 *795:22 19.25 
3 *795:22 *9527:A1 21.2107 
4 *795:22 *9067:A 9.3 
5 *795:6 *795:48 12.0714 
6 *795:48 *795:50 2.55357 
7 *795:50 *795:60 45.5714 
8 *795:60 *9213:B2 13.8 
9 *795:50 *9077:B 4.5 
10 *795:48 *9135:B 14.3357 
*END

*D_NET *796 0.0173917
*CONN
*I *9578:A1 I *D sky130_fd_sc_hd__mux2_1
*I *9135:C I *D sky130_fd_sc_hd__and4b_1
*I *9083:A I *D sky130_fd_sc_hd__xor2_2
*I *9077:A I *D sky130_fd_sc_hd__xor2_2
*I *9218:B2 I *D sky130_fd_sc_hd__a22o_1
*I *9239:B2 I *D sky130_fd_sc_hd__a22o_1
*I *9710:Q O *D sky130_fd_sc_hd__dfrtp_4
*CAP
1 *9578:A1 0.000166126
2 *9135:C 6.91437e-05
3 *9083:A 0.000202589
4 *9077:A 2.23854e-05
5 *9218:B2 0.000624889
6 *9239:B2 0
7 *9710:Q 0.000386116
8 *796:95 0.000496334
9 *796:82 0.001759
10 *796:42 0.00218158
11 *796:20 0.00330584
12 *796:16 0.000789376
13 *9218:B2 *863:54 0.000190631
14 *796:20 *9482:B2 0.000171368
15 *796:20 *9560:A0 3.17148e-05
16 *796:42 *9465:A 3.69047e-06
17 *796:42 *9760:A 8.43535e-06
18 *796:42 *830:16 5.33005e-05
19 *796:42 *863:54 5.74562e-05
20 *796:82 *9318:B 0
21 *796:82 *9318:C 4.72938e-06
22 *796:82 *9457:S 0.000252765
23 *796:82 *9484:A1 8.25843e-06
24 *796:82 *814:29 3.14048e-05
25 *796:82 *830:16 0.000679004
26 *796:95 *814:29 9.1084e-05
27 *1109:DIODE *9083:A 4.87854e-05
28 *9221:A1 *796:20 0
29 *9221:A1 *796:42 9.91086e-05
30 *9224:B2 *9218:B2 0
31 *9233:A2 *9218:B2 3.69697e-05
32 *9233:B2 *9218:B2 0.000335215
33 *9237:B *9578:A1 0
34 *9237:B *796:20 0
35 *9320:A *796:16 0.00022266
36 *9321:A *796:82 4.74489e-06
37 *9465:B *796:42 0.000141445
38 *9480:B2 *796:42 2.97829e-05
39 *9482:A1 *796:42 0.000100831
40 *9482:B1 *796:16 9.91086e-05
41 *9499:B1 *796:16 1.21258e-05
42 *9504:A3 *796:42 8.50152e-05
43 *9578:S *9578:A1 0.000236814
44 *9672:CLK *796:82 0.000274294
45 *9672:D *796:82 4.70078e-05
46 *9710:D *9578:A1 0
47 *238:8 *796:20 2.05938e-05
48 *240:8 *9083:A 5.26184e-05
49 *337:306 *9218:B2 0.000100831
50 *344:214 *796:42 0.00010096
51 *344:220 *796:42 2.91219e-05
52 *344:239 *9218:B2 0.000179465
53 *344:239 *796:42 6.92813e-05
54 *344:241 *9218:B2 5.52238e-05
55 *348:39 *9218:B2 1.76039e-05
56 *348:45 *9218:B2 0.00018569
57 *372:18 *796:16 8.68735e-05
58 *381:8 *9218:B2 5.71472e-05
59 *440:16 *796:42 0.000732662
60 *441:10 *796:42 8.43535e-06
61 *441:14 *9578:A1 7.83659e-05
62 *441:14 *796:20 0.000437927
63 *442:328 *796:82 7.83587e-05
64 *537:14 *796:42 0.00018372
65 *537:16 *796:42 5.52302e-05
66 *537:20 *796:42 0.000780685
67 *540:27 *796:16 0.000181796
68 *541:372 *9135:C 4.79842e-05
69 *566:12 *796:42 4.58194e-05
70 *596:8 *9218:B2 3.28534e-05
71 *597:20 *796:42 1.98839e-05
72 *597:66 *796:82 7.6644e-05
73 *740:101 *796:16 0.000100831
74 *766:6 *796:42 8.25843e-06
75 *793:26 *9083:A 0
76 *793:26 *9135:C 0
77 *795:48 *9135:C 4.46186e-06
78 *795:50 *9083:A 3.17067e-05
79 *795:50 *9135:C 7.48356e-05
80 *795:60 *9083:A 9.4736e-05
*RES
1 *9710:Q *796:16 29.7286 
2 *796:16 *796:20 11 
3 *796:20 *796:42 46.0357 
4 *796:42 *9239:B2 9.3 
5 *796:42 *9218:B2 31.1571 
6 *796:20 *796:82 34.5536 
7 *796:82 *9077:A 9.72857 
8 *796:82 *796:95 8.33929 
9 *796:95 *9083:A 18.425 
10 *796:95 *9135:C 15.7464 
11 *796:16 *9578:A1 17.8714 
*END

*D_NET *797 0.000503971
*CONN
*I *9777:A I *D sky130_fd_sc_hd__dlygate4sd3_1
*I *9713:Q O *D sky130_fd_sc_hd__dfstp_1
*CAP
1 *9777:A 0.000205474
2 *9713:Q 0.000205474
3 *9713:CLK *9777:A 7.83587e-05
4 *9713:SET_B *9777:A 1.06618e-05
5 *592:81 *9777:A 4.00276e-06
*RES
1 *9713:Q *9777:A 30.6446 
*END

*D_NET *798 0.0141778
*CONN
*I *9318:A I *D sky130_fd_sc_hd__or4b_2
*I *9465:A I *D sky130_fd_sc_hd__nor2_2
*I *9463:A I *D sky130_fd_sc_hd__nor4b_2
*I *9248:A I *D sky130_fd_sc_hd__inv_2
*I *9714:Q O *D sky130_fd_sc_hd__dfstp_2
*CAP
1 *9318:A 0.000237443
2 *9465:A 0.000949573
3 *9463:A 0
4 *9248:A 0
5 *9714:Q 0.00377727
6 *798:42 0.0012289
7 *798:31 0.000510858
8 *798:20 0.00424624
9 *9318:A *9318:B 8.07889e-06
10 *9318:A *9318:C 3.54798e-05
11 *9465:A *9760:A 0.000122091
12 *798:31 *9245:A1 3.5707e-05
13 *798:31 *9318:D_N 4.81012e-05
14 *798:31 *815:21 0.000179665
15 *798:42 *9318:D_N 0.000117896
16 *9150:B2 *798:20 0.000137962
17 *9221:A1 *9465:A 0.000145406
18 *9221:A2 *9465:A 2.05938e-05
19 *9245:B1 *798:31 0
20 *9455:A *798:20 0
21 *9480:B2 *9465:A 0.000100823
22 *9482:A1 *9465:A 3.22325e-05
23 *9559:A *9465:A 5.33005e-05
24 *9712:D *9465:A 5.52238e-05
25 *9712:RESET_B *9318:A 0.000137983
26 *9712:RESET_B *9465:A 8.94203e-05
27 *277:8 *798:31 2.59093e-05
28 *311:8 *798:20 0.000129868
29 *312:22 *798:20 0
30 *319:14 *798:20 1.17968e-05
31 *344:208 *9465:A 1.11775e-05
32 *369:56 *798:20 1.21859e-05
33 *369:201 *9465:A 0.000238637
34 *390:16 *798:31 0.000147121
35 *440:16 *9318:A 8.69896e-06
36 *440:16 *9465:A 0.000236551
37 *536:12 *9465:A 0.000186662
38 *566:22 *9465:A 0.000361739
39 *566:324 *798:20 0.000123527
40 *743:96 *798:31 0
41 *755:14 *798:20 2.06112e-05
42 *756:10 *798:20 0
43 *757:18 *798:31 0.00022771
44 *757:18 *798:42 6.74815e-05
45 *766:6 *9465:A 9.41642e-05
46 *785:33 *9465:A 0
47 *796:42 *9465:A 3.69047e-06
*RES
1 *9714:Q *798:20 44.896 
2 *798:20 *9248:A 9.3 
3 *798:20 *798:31 15.2857 
4 *798:31 *9463:A 13.8 
5 *798:31 *798:42 6.14286 
6 *798:42 *9465:A 45.2821 
7 *798:42 *9318:A 12.6214 
*END

*D_NET *799 0.00354257
*CONN
*I *9070:B I *D sky130_fd_sc_hd__xnor2_2
*I *9529:A1 I *D sky130_fd_sc_hd__mux2_1
*I *9352:A1 I *D sky130_fd_sc_hd__a31o_1
*I *9686:Q O *D sky130_fd_sc_hd__dfrtp_1
*CAP
1 *9070:B 0
2 *9529:A1 0.000130026
3 *9352:A1 0.00017659
4 *9686:Q 0.000291591
5 *799:23 0.000684134
6 *799:10 0.00102229
7 *9352:A1 *800:14 0.000197208
8 *799:10 *800:14 6.07232e-05
9 *1149:DIODE *799:23 5.62995e-05
10 *1151:DIODE *799:10 0.000188586
11 *9352:A2 *9352:A1 0.000161858
12 *9532:A *799:23 0.000142856
13 *9686:RESET_B *799:10 4.35452e-05
14 *9687:D *799:23 2.89114e-05
15 *299:27 *9529:A1 0.000167275
16 *348:171 *9529:A1 0.000110593
17 *616:14 *9352:A1 0
18 *616:14 *799:10 0
19 *735:87 *9352:A1 8.0085e-05
*RES
1 *9686:Q *799:10 18.4429 
2 *799:10 *9352:A1 18.7821 
3 *799:10 *799:23 14.0714 
4 *799:23 *9529:A1 22.3714 
5 *799:23 *9070:B 9.3 
*END

*D_NET *800 0.00963327
*CONN
*I *9531:A1 I *D sky130_fd_sc_hd__mux2_1
*I *9355:A1 I *D sky130_fd_sc_hd__a31o_1
*I *9086:A I *D sky130_fd_sc_hd__xnor2_2
*I *9687:Q O *D sky130_fd_sc_hd__dfrtp_2
*CAP
1 *9531:A1 0.000589935
2 *9355:A1 0.00021892
3 *9086:A 0.00151942
4 *9687:Q 0.000203472
5 *800:14 0.00242942
6 *800:10 0.00148449
7 *9086:A *873:10 3.14163e-05
8 *9355:A1 *9360:B1_N 2.78729e-05
9 *800:14 *9351:B1_N 1.78353e-05
10 *800:14 *9360:B1_N 0.000126439
11 *800:14 *870:29 0.000195201
12 *9086:B *9086:A 3.18676e-05
13 *9157:A *9086:A 3.99614e-06
14 *9157:B *9086:A 0.000224564
15 *9352:A1 *800:14 0.000197208
16 *9360:A1 *800:14 0
17 *9459:A0 *9086:A 0.000222666
18 *9460:A *9086:A 0.000185643
19 *9529:A0 *9531:A1 1.24368e-05
20 *9531:S *9531:A1 5.7661e-06
21 *9533:S *9531:A1 4.08637e-05
22 *9534:A *9531:A1 0
23 *9640:D *9531:A1 0.000535825
24 *9687:D *800:14 0
25 *9687:RESET_B *800:10 3.8524e-05
26 *9866:A *9355:A1 0.000154309
27 *319:14 *9086:A 0
28 *319:24 *9086:A 0.00043548
29 *321:21 *9355:A1 0.000152333
30 *321:21 *800:14 0
31 *321:40 *800:14 0
32 *321:59 *800:14 0
33 *321:120 *9355:A1 1.19309e-05
34 *405:42 *800:14 8.1004e-05
35 *442:144 *9531:A1 0.000259438
36 *616:14 *9531:A1 0
37 *616:14 *800:14 0
38 *616:20 *9355:A1 0
39 *736:62 *9355:A1 1.02504e-05
40 *757:50 *800:14 0.00012401
41 *799:10 *800:14 6.07232e-05
*RES
1 *9687:Q *800:10 16.5143 
2 *800:10 *800:14 19.8036 
3 *800:14 *9086:A 34.5679 
4 *800:14 *9355:A1 23.05 
5 *800:10 *9531:A1 24.9786 
*END

*D_NET *801 0.00999137
*CONN
*I *9533:A1 I *D sky130_fd_sc_hd__mux2_1
*I *9089:B I *D sky130_fd_sc_hd__xor2_2
*I *9358:A1 I *D sky130_fd_sc_hd__a31o_1
*I *9688:Q O *D sky130_fd_sc_hd__dfrtp_2
*CAP
1 *9533:A1 0.000889952
2 *9089:B 0.000328381
3 *9358:A1 0
4 *9688:Q 0.000238454
5 *801:18 0.00135064
6 *801:10 0.00215066
7 *904:DIODE *9089:B 0.000519862
8 *1240:DIODE *801:18 0.000154762
9 *9353:A2 *801:18 0
10 *9533:A0 *9533:A1 0.000659775
11 *9593:D *801:18 0.000146275
12 *9640:D *9533:A1 2.44318e-05
13 *321:133 *801:18 0.000183597
14 *322:28 *9089:B 0.000461447
15 *322:28 *801:18 0.000396898
16 *404:42 *9089:B 0.000342302
17 *404:42 *801:18 9.79345e-05
18 *405:14 *9089:B 0.000260574
19 *461:34 *801:18 0
20 *730:72 *801:10 0.000108737
21 *730:72 *801:18 8.19347e-05
22 *730:82 *801:18 0.0015291
23 *747:28 *801:18 0
24 *747:38 *801:18 0
25 *747:52 *801:18 0
26 *747:59 *801:10 0
27 *747:59 *801:18 0
28 *747:98 *801:10 0
29 *791:100 *9089:B 6.56534e-05
*RES
1 *9688:Q *801:10 18.5143 
2 *801:10 *801:18 31.0357 
3 *801:18 *9358:A1 9.3 
4 *801:18 *9089:B 11.5982 
5 *801:10 *9533:A1 25.4429 
*END

*D_NET *802 0.00933223
*CONN
*I *9535:A1 I *D sky130_fd_sc_hd__mux2_1
*I *9092:A I *D sky130_fd_sc_hd__xnor2_1
*I *9361:A1 I *D sky130_fd_sc_hd__a31o_1
*I *9689:Q O *D sky130_fd_sc_hd__dfrtp_1
*CAP
1 *9535:A1 0
2 *9092:A 0.000155757
3 *9361:A1 0.000678297
4 *9689:Q 0.000958215
5 *802:16 0.00187735
6 *802:10 0.00200151
7 *9361:A1 *814:41 0
8 *9361:A1 *897:82 0.000123522
9 *802:16 *814:41 0
10 *802:16 *832:18 0.000173083
11 *905:DIODE *9092:A 8.71847e-05
12 *1149:DIODE *802:16 3.69697e-05
13 *9353:A2 *9361:A1 4.38265e-05
14 *9353:B1 *9361:A1 1.15281e-05
15 *9353:B2 *9361:A1 1.81774e-05
16 *9360:A1 *9361:A1 0
17 *9488:A1 *802:10 6.30388e-05
18 *9532:A *802:16 0
19 *9534:A *802:16 0.000130339
20 *9535:S *802:10 6.81083e-05
21 *9535:S *802:16 8.25098e-05
22 *9536:A *802:10 0
23 *9536:A *802:16 0
24 *9658:D *802:16 0.000161
25 *9659:D *802:16 0.000306625
26 *9687:D *802:16 0.00029513
27 *9689:D *802:10 0.000149824
28 *9689:RESET_B *802:10 6.17606e-05
29 *391:26 *9361:A1 0.000754708
30 *405:69 *9361:A1 0.000320424
31 *405:80 *9361:A1 1.56e-05
32 *442:194 *802:16 9.86636e-05
33 *541:294 *802:16 0
34 *584:342 *802:16 5.98769e-05
35 *584:361 *802:16 0
36 *588:18 *802:16 0
37 *588:29 *802:16 0
38 *589:12 *802:10 0
39 *589:20 *802:10 0.000143635
40 *735:72 *9361:A1 1.36077e-05
41 *747:28 *9361:A1 4.5534e-05
42 *769:12 *802:16 0.000396427
*RES
1 *9689:Q *802:10 27.1571 
2 *802:10 *802:16 25.6786 
3 *802:16 *9361:A1 29.6798 
4 *802:16 *9092:A 16.8 
5 *802:10 *9535:A1 13.8 
*END

*D_NET *803 0.00114205
*CONN
*I *9537:A1 I *D sky130_fd_sc_hd__mux2_1
*I *9102:B I *D sky130_fd_sc_hd__xor2_2
*I *9690:Q O *D sky130_fd_sc_hd__dfrtp_1
*CAP
1 *9537:A1 0
2 *9102:B 5.36793e-05
3 *9690:Q 0.00028792
4 *803:12 0.000341599
5 *803:12 *9537:A0 9.92409e-05
6 *803:12 *835:28 0.000107367
7 *9537:S *9102:B 7.6644e-05
8 *232:18 *803:12 4.98872e-05
9 *373:12 *9102:B 0.000125717
10 *373:12 *803:12 0
*RES
1 *9690:Q *803:12 23.0321 
2 *803:12 *9102:B 10.6429 
3 *803:12 *9537:A1 9.3 
*END

*D_NET *804 0.00150466
*CONN
*I *9539:A1 I *D sky130_fd_sc_hd__mux2_1
*I *9074:B I *D sky130_fd_sc_hd__xor2_4
*I *9691:Q O *D sky130_fd_sc_hd__dfrtp_2
*CAP
1 *9539:A1 0.000148072
2 *9074:B 0.000407962
3 *9691:Q 0
4 *804:4 0.000556034
5 *1154:DIODE *9539:A1 5.52302e-05
6 *9497:B2 *9074:B 0
7 *9498:A1 *9074:B 0
8 *9661:RESET_B *9539:A1 6.92434e-05
9 *9772:A *9074:B 0.000152333
10 *540:79 *9074:B 0
11 *540:79 *9539:A1 2.89114e-05
12 *541:41 *9074:B 2.6949e-05
13 *740:131 *9539:A1 5.99221e-05
*RES
1 *9691:Q *804:4 9.3 
2 *804:4 *9074:B 24.8536 
3 *804:4 *9539:A1 21.9964 
*END

*D_NET *805 0.00518649
*CONN
*I *9541:A1 I *D sky130_fd_sc_hd__mux2_1
*I *9067:B I *D sky130_fd_sc_hd__xor2_2
*I *9692:Q O *D sky130_fd_sc_hd__dfrtp_1
*CAP
1 *9541:A1 0.000397253
2 *9067:B 0.00130565
3 *9692:Q 4.70928e-05
4 *805:8 0.00174999
5 *9067:B *9489:A1 0
6 *9541:A1 *9839:A 9.46929e-05
7 *805:8 *9785:A 2.59355e-05
8 *9490:B2 *9067:B 0
9 *9491:A1 *9541:A1 0
10 *9523:A0 *9067:B 0
11 *9538:A *9067:B 0.000149911
12 *9541:A0 *9541:A1 0.000185643
13 *9543:A0 *9067:B 0
14 *9663:D *9067:B 0.000126439
15 *9663:D *9541:A1 0.000187019
16 *9683:RESET_B *9067:B 6.75007e-05
17 *372:18 *9067:B 0
18 *442:354 *9067:B 0
19 *442:374 *9067:B 0
20 *541:91 *9067:B 0
21 *541:139 *9067:B 0
22 *541:168 *9067:B 0
23 *541:189 *9067:B 0
24 *743:145 *9067:B 0.000293415
25 *743:158 *9067:B 0.000459684
26 *743:164 *9067:B 9.62638e-05
27 *794:12 *9067:B 0
*RES
1 *9692:Q *805:8 14.3357 
2 *805:8 *9067:B 30.7321 
3 *805:8 *9541:A1 20.175 
*END

*D_NET *806 0.00169477
*CONN
*I *9543:A1 I *D sky130_fd_sc_hd__mux2_1
*I *9069:B I *D sky130_fd_sc_hd__xnor2_4
*I *9693:Q O *D sky130_fd_sc_hd__dfrtp_2
*CAP
1 *9543:A1 4.16687e-05
2 *9069:B 0.000109958
3 *9693:Q 0.000311508
4 *806:10 0.000463135
5 *9069:B *9489:A1 0.000181349
6 *9490:B2 *806:10 2.19307e-05
7 *9543:A0 *9543:A1 2.89016e-05
8 *442:301 *806:10 0
9 *540:145 *806:10 0
10 *743:145 *9069:B 0.00015304
11 *743:158 *9069:B 0.000189441
12 *743:158 *806:10 0.00019384
*RES
1 *9693:Q *806:10 18.5321 
2 *806:10 *9069:B 18.175 
3 *806:10 *9543:A1 14.3357 
*END

*D_NET *807 0.0036462
*CONN
*I *9318:C I *D sky130_fd_sc_hd__or4b_2
*I *9245:B2 I *D sky130_fd_sc_hd__a22o_1
*I *9822:A I *D sky130_fd_sc_hd__dlygate4sd3_1
*I *9463:C I *D sky130_fd_sc_hd__nor4b_2
*I *9717:Q O *D sky130_fd_sc_hd__dfrtp_1
*CAP
1 *9318:C 0.000219554
2 *9245:B2 0.000346295
3 *9822:A 0
4 *9463:C 0
5 *9717:Q 0.000123831
6 *807:40 0.00063794
7 *807:31 0.000266305
8 *807:12 0.000318045
9 *9318:C *9318:B 5.71472e-05
10 *807:12 *9560:A1 7.50601e-05
11 *807:12 *824:8 5.80706e-06
12 *807:31 *9463:D_N 0.000121575
13 *1045:DIODE *9318:C 0
14 *1164:DIODE *807:31 0.000199144
15 *1164:DIODE *807:40 0.000122591
16 *9245:B1 *9245:B2 0.000218517
17 *9318:A *9318:C 3.54798e-05
18 *9823:A *9245:B2 0.000132753
19 *337:235 *9245:B2 0.000357971
20 *337:235 *9318:C 0.000191163
21 *390:16 *9245:B2 2.28589e-05
22 *442:328 *9318:C 4.1331e-06
23 *536:12 *807:31 5.57084e-05
24 *597:68 *9245:B2 0
25 *597:68 *9318:C 0
26 *597:80 *9245:B2 0
27 *740:24 *807:12 1.72894e-05
28 *743:96 *9245:B2 6.51076e-05
29 *743:110 *807:12 4.71964e-05
30 *796:82 *9318:C 4.72938e-06
*RES
1 *9717:Q *807:12 20.7821 
2 *807:12 *9463:C 9.3 
3 *807:12 *807:31 4.91071 
4 *807:31 *9822:A 9.3 
5 *807:31 *807:40 5.85714 
6 *807:40 *9245:B2 21.9607 
7 *807:40 *9318:C 18.5679 
*END

*D_NET *808 0.00732857
*CONN
*I *9252:A I *D sky130_fd_sc_hd__and3_1
*I *9806:A I *D sky130_fd_sc_hd__dlygate4sd3_1
*I *9640:Q O *D sky130_fd_sc_hd__dfrtp_1
*CAP
1 *9252:A 2.17614e-05
2 *9806:A 3.82418e-05
3 *9640:Q 0.000146194
4 *808:33 0.00262811
5 *808:12 0.00279079
6 *9252:A *9393:A 9.71197e-05
7 *808:33 *9280:B 0.000159537
8 *808:33 *9281:C 5.19842e-06
9 *808:33 *9758:A 8.71847e-05
10 *808:33 *887:10 4.15914e-05
11 *9252:B *808:33 0.000187026
12 *9280:C *808:33 0
13 *9280:D *808:33 0.000100831
14 *9390:C *808:33 4.43046e-05
15 *9398:B *808:33 7.61932e-05
16 *9398:C *808:33 5.52302e-05
17 *9399:A *808:33 5.23057e-05
18 *9401:A *808:33 0.000271345
19 *9620:CLK *808:33 2.89114e-05
20 *9620:RESET_B *808:33 2.51935e-05
21 *347:234 *808:33 0.000267099
22 *493:10 *9252:A 9.71197e-05
23 *499:14 *808:33 2.89114e-05
24 *730:72 *808:12 7.83659e-05
*RES
1 *9640:Q *808:12 20.2821 
2 *808:12 *9806:A 10.0321 
3 *808:12 *808:33 49.3393 
4 *808:33 *9252:A 10.2464 
*END

*D_NET *809 0.000690921
*CONN
*I *9254:A I *D sky130_fd_sc_hd__and3_1
*I *9639:Q O *D sky130_fd_sc_hd__dfrtp_1
*CAP
1 *9254:A 0.000146074
2 *9639:Q 0.000146074
3 *9254:A *812:12 0.000125724
4 *9639:RESET_B *9254:A 0
5 *9674:RESET_B *9254:A 1.3701e-05
6 *347:22 *9254:A 6.42242e-05
7 *369:104 *9254:A 5.52238e-05
8 *381:12 *9254:A 0.0001399
*RES
1 *9639:Q *9254:A 31.3321 
*END

*D_NET *810 0.00180293
*CONN
*I *9249:A1 I *D sky130_fd_sc_hd__a22o_1
*I *9824:A I *D sky130_fd_sc_hd__dlygate4sd3_1
*I *9638:Q O *D sky130_fd_sc_hd__dfrtp_1
*CAP
1 *9249:A1 0.000205219
2 *9824:A 7.4806e-05
3 *9638:Q 0.000111539
4 *810:8 0.000391564
5 *9824:A *9459:S 6.42095e-05
6 *9157:A *9824:A 0.000136958
7 *9157:B *9824:A 0.000262504
8 *9181:B2 *9249:A1 0.000106924
9 *9181:B2 *810:8 0.000123986
10 *337:197 *9249:A1 9.3111e-05
11 *791:96 *9249:A1 0.000110434
12 *791:96 *810:8 0.000121671
*RES
1 *9638:Q *810:8 16.9607 
2 *810:8 *9824:A 16.3893 
3 *810:8 *9249:A1 18.425 
*END

*D_NET *811 0.00288161
*CONN
*I *9827:A I *D sky130_fd_sc_hd__dlygate4sd3_1
*I *9245:A1 I *D sky130_fd_sc_hd__a22o_1
*I *9637:Q O *D sky130_fd_sc_hd__dfrtp_1
*CAP
1 *9827:A 0.000173908
2 *9245:A1 0.000747174
3 *9637:Q 0
4 *811:4 0.000921082
5 *9249:B2 *9245:A1 9.60939e-05
6 *9249:B2 *9827:A 1.97695e-05
7 *9457:A0 *9827:A 7.83659e-05
8 *9635:CLK *9245:A1 1.39841e-05
9 *9637:D *9245:A1 1.39726e-05
10 *9637:RESET_B *9245:A1 4.28817e-05
11 *235:12 *9827:A 7.83659e-05
12 *344:138 *9827:A 0.000311183
13 *597:80 *9245:A1 0.000271345
14 *743:96 *9245:A1 0
15 *757:34 *9827:A 7.77751e-05
16 *798:31 *9245:A1 3.5707e-05
*RES
1 *9637:Q *811:4 9.3 
2 *811:4 *9245:A1 27.9786 
3 *811:4 *9827:A 23.0679 
*END

*D_NET *812 0.00391515
*CONN
*I *9788:A I *D sky130_fd_sc_hd__dlygate4sd3_1
*I *9715:Q O *D sky130_fd_sc_hd__dfrtp_1
*CAP
1 *9788:A 0
2 *9715:Q 0.000963695
3 *812:12 0.000963695
4 *9254:A *812:12 0.000125724
5 *9629:D *812:12 0.000262948
6 *9631:D *812:12 0
7 *9631:RESET_B *812:12 0.000506342
8 *9639:D *812:12 0
9 *9715:RESET_B *812:12 6.0397e-05
10 *347:16 *812:12 1.87097e-05
11 *347:22 *812:12 0.000490803
12 *347:28 *812:12 0.000237546
13 *369:104 *812:12 0.000173797
14 *400:8 *812:12 5.80706e-06
15 *741:72 *812:12 0.000105689
*RES
1 *9715:Q *812:12 44.7643 
2 *812:12 *9788:A 9.3 
*END

*D_NET *813 0.00329264
*CONN
*I *9759:A I *D sky130_fd_sc_hd__dlygate4sd3_1
*I *9716:Q O *D sky130_fd_sc_hd__dfrtp_1
*CAP
1 *9759:A 0.000952767
2 *9716:Q 0.000952767
3 *9759:A *863:28 0
4 *9265:A *9759:A 0.000122055
5 *9477:A1 *9759:A 8.70495e-05
6 *9551:A *9759:A 0.000313241
7 *9651:D *9759:A 3.18676e-05
8 *9716:CLK *9759:A 5.71472e-05
9 *9716:RESET_B *9759:A 0.000157618
10 *166:18 *9759:A 0.000589599
11 *738:109 *9759:A 0
12 *755:14 *9759:A 2.8529e-05
*RES
1 *9716:Q *9759:A 49.6893 
*END

*D_NET *814 0.0115036
*CONN
*I *9134:C I *D sky130_fd_sc_hd__and3b_1
*I *9461:A I *D sky130_fd_sc_hd__inv_2
*I *9459:S I *D sky130_fd_sc_hd__mux2_1
*I *9242:B2 I *D sky130_fd_sc_hd__a22o_1
*I *9457:S I *D sky130_fd_sc_hd__mux2_1
*I *9672:Q O *D sky130_fd_sc_hd__dfrtp_4
*CAP
1 *9134:C 0.000109555
2 *9461:A 0
3 *9459:S 0.000281466
4 *9242:B2 0.000220892
5 *9457:S 0.00101409
6 *9672:Q 2.23854e-05
7 *814:41 0.00102036
8 *814:37 0.000938534
9 *814:29 0.00130254
10 *814:6 0.00180893
11 *1107:DIODE *814:29 1.46148e-05
12 *1107:DIODE *814:37 1.24368e-05
13 *1150:DIODE *814:37 0.00059919
14 *9134:A_N *9134:C 0.000186765
15 *9134:A_N *814:37 0.000525934
16 *9136:C *814:37 3.13687e-05
17 *9157:A *9459:S 9.41642e-05
18 *9157:B *9459:S 2.95726e-05
19 *9158:A *9242:B2 0
20 *9242:A1 *9242:B2 3.57366e-05
21 *9242:B1 *9242:B2 1.73305e-05
22 *9361:A1 *814:41 0
23 *9457:A0 *9457:S 0.000316894
24 *9462:A1 *814:37 2.59355e-05
25 *9462:A1 *814:41 5.66157e-05
26 *9530:A *814:37 7.48091e-05
27 *9532:A *814:41 0.000389854
28 *9637:RESET_B *9457:S 0.00031275
29 *9824:A *9459:S 6.42095e-05
30 *235:12 *9457:S 6.53781e-05
31 *267:10 *9457:S 0
32 *299:27 *814:41 0.000463196
33 *319:24 *9459:S 0
34 *337:193 *9242:B2 0.000191403
35 *337:193 *814:41 0.000117189
36 *442:156 *814:37 8.17274e-05
37 *541:372 *814:29 1.13147e-05
38 *740:79 *9457:S 0.000564795
39 *790:20 *814:29 9.35794e-06
40 *790:20 *814:37 0.000117016
41 *794:18 *9457:S 0
42 *796:82 *9457:S 0.000252765
43 *796:82 *814:29 3.14048e-05
44 *796:95 *814:29 9.1084e-05
45 *802:16 *814:41 0
*RES
1 *9672:Q *814:6 9.72857 
2 *814:6 *9457:S 39.0321 
3 *814:6 *814:29 9.71429 
4 *814:29 *814:37 12.0893 
5 *814:37 *814:41 18.2857 
6 *814:41 *9242:B2 18.1571 
7 *814:41 *9459:S 17.5321 
8 *814:37 *9461:A 9.3 
9 *814:29 *9134:C 11.4786 
*END

*D_NET *815 0.0121435
*CONN
*I *9318:D_N I *D sky130_fd_sc_hd__or4b_2
*I *9463:D_N I *D sky130_fd_sc_hd__nor4b_2
*I *9799:A I *D sky130_fd_sc_hd__dlygate4sd3_1
*I *9711:Q O *D sky130_fd_sc_hd__dfrtp_1
*CAP
1 *9318:D_N 0.000193725
2 *9463:D_N 8.93237e-05
3 *9799:A 1.40568e-05
4 *9711:Q 0.000302819
5 *815:21 0.00153165
6 *815:10 0.00283932
7 *815:8 0.00187948
8 *9318:D_N *9463:B 9.4736e-05
9 *9463:D_N *9560:A1 5.03772e-05
10 *815:10 *9109:A 0.000148903
11 *815:10 *9804:A 7.83587e-05
12 *815:10 *861:8 0.000200413
13 *815:10 *861:19 0.000734847
14 *815:21 *9096:A 6.19181e-05
15 *815:21 *824:8 0
16 *1164:DIODE *9463:D_N 0.000351162
17 *9109:B *815:10 0
18 *9121:B *815:10 0.000125724
19 *9121:B *815:21 3.34366e-05
20 *9123:B *815:10 0
21 *9123:B *815:21 0
22 *9210:B1 *815:10 0
23 *9211:B *815:10 0
24 *9212:A *815:10 0.000103267
25 *9571:A *815:10 0
26 *9711:CLK *815:10 0
27 *9712:RESET_B *9318:D_N 0.000140933
28 *271:12 *815:10 0
29 *276:40 *815:21 4.65158e-06
30 *277:8 *815:21 0.00162623
31 *337:46 *815:10 0
32 *369:280 *9799:A 2.89016e-05
33 *376:16 *9799:A 5.52238e-05
34 *388:16 *815:21 0
35 *390:16 *815:21 3.37194e-05
36 *440:16 *9318:D_N 0.000140933
37 *536:12 *9463:D_N 2.58821e-05
38 *593:67 *815:10 0
39 *610:14 *815:21 0
40 *610:22 *815:21 0
41 *723:8 *815:10 0.000462863
42 *743:96 *815:10 0
43 *743:110 *9318:D_N 1.87026e-05
44 *743:110 *815:21 0.000290979
45 *757:18 *9318:D_N 1.37292e-05
46 *798:31 *9318:D_N 4.81012e-05
47 *798:31 *815:21 0.000179665
48 *798:42 *9318:D_N 0.000117896
49 *807:31 *9463:D_N 0.000121575
*RES
1 *9711:Q *815:8 17.2107 
2 *815:8 *815:10 33.2143 
3 *815:10 *9799:A 14.3357 
4 *815:10 *815:21 28.9643 
5 *815:21 *9463:D_N 17.2107 
6 *815:21 *9318:D_N 19.0857 
*END

*D_NET *816 0.00130582
*CONN
*I *9318:B I *D sky130_fd_sc_hd__or4b_2
*I *9463:B I *D sky130_fd_sc_hd__nor4b_2
*I *9712:Q O *D sky130_fd_sc_hd__dfrtp_1
*CAP
1 *9318:B 0.000146784
2 *9463:B 0.000165333
3 *9712:Q 0
4 *816:4 0.000312118
5 *9318:A *9318:B 8.07889e-06
6 *9318:C *9318:B 5.71472e-05
7 *9318:D_N *9463:B 9.4736e-05
8 *440:16 *9318:B 0.000112068
9 *440:16 *9463:B 0.000186669
10 *743:110 *9463:B 0.000222885
11 *757:18 *9463:B 0
12 *796:82 *9318:B 0
*RES
1 *9712:Q *816:4 9.3 
2 *816:4 *9463:B 22.925 
3 *816:4 *9318:B 11.9071 
*END

*D_NET *817 0.00983178
*CONN
*I *9122:A I *D sky130_fd_sc_hd__xnor2_1
*I *9152:A1 I *D sky130_fd_sc_hd__a221o_1
*I *9440:A0 I *D sky130_fd_sc_hd__mux2_1
*I *9140:A I *D sky130_fd_sc_hd__inv_2
*I *9546:A1 I *D sky130_fd_sc_hd__mux2_1
*I *9694:Q O *D sky130_fd_sc_hd__dfrtp_4
*CAP
1 *9122:A 0.000594224
2 *9152:A1 0.000328351
3 *9440:A0 0
4 *9140:A 4.1975e-05
5 *9546:A1 0.000487203
6 *9694:Q 0
7 *817:40 0.000544304
8 *817:25 0.000778218
9 *817:23 0.00195114
10 *817:4 0.00132383
11 *9122:A *9444:A0 5.03772e-05
12 *9122:A *819:27 2.63739e-05
13 *9122:A *819:44 4.52236e-05
14 *9140:A *9450:A0 7.02611e-05
15 *9152:A1 *820:65 3.87078e-05
16 *817:23 *9082:A 0
17 *817:23 *9562:A1 0
18 *817:23 *9832:A 0
19 *817:23 *819:27 3.45116e-05
20 *817:25 *9450:A0 2.00751e-05
21 *817:25 *9797:A 0.000143887
22 *817:25 *819:44 0.000127068
23 *817:25 *821:74 0.000178092
24 *817:25 *822:29 0.000107026
25 *817:40 *9797:A 0.00012401
26 *9151:C1 *9152:A1 0.000178847
27 *9151:C1 *817:40 0.00022266
28 *9152:B2 *9152:A1 6.26774e-06
29 *9152:C1 *9152:A1 1.98839e-05
30 *9155:B1 *817:25 6.20855e-06
31 *9155:C1 *817:25 9.72251e-05
32 *9155:C1 *817:40 5.74562e-05
33 *9444:S *9122:A 0.000224583
34 *9467:A1 *817:23 7.4826e-05
35 *9467:A2 *817:23 0
36 *9630:D *817:23 9.13044e-05
37 *9630:D *817:25 2.76821e-05
38 *9641:D *817:23 0.000128154
39 *322:67 *9140:A 0.000137983
40 *344:172 *9122:A 7.00351e-05
41 *347:78 *9122:A 0.000176388
42 *347:101 *9122:A 3.79341e-05
43 *347:103 *9122:A 0.000144773
44 *537:93 *9546:A1 0.000664641
45 *539:246 *817:23 5.75147e-05
46 *566:60 *817:25 0
47 *566:62 *817:23 0
48 *566:64 *817:23 0
49 *566:70 *9546:A1 9.22948e-05
50 *566:76 *9546:A1 9.25014e-06
51 *584:215 *817:23 3.15196e-05
52 *584:221 *817:23 0.000259481
53 *738:61 *9546:A1 0
54 *738:70 *9546:A1 0
55 *785:33 *817:23 0
*RES
1 *9694:Q *817:4 9.3 
2 *817:4 *9546:A1 25.925 
3 *817:4 *817:23 21.1161 
4 *817:23 *817:25 12.7232 
5 *817:25 *9140:A 15.1571 
6 *817:25 *817:40 8.32143 
7 *817:40 *9440:A0 9.3 
8 *817:40 *9152:A1 13.55 
9 *817:23 *9122:A 25.7732 
*END

*D_NET *818 0.0156652
*CONN
*I *9082:A I *D sky130_fd_sc_hd__xnor2_2
*I *9149:A1 I *D sky130_fd_sc_hd__o22ai_1
*I *9442:A0 I *D sky130_fd_sc_hd__mux2_1
*I *9146:A1 I *D sky130_fd_sc_hd__a221o_1
*I *9548:A1 I *D sky130_fd_sc_hd__mux2_1
*I *9695:Q O *D sky130_fd_sc_hd__dfrtp_4
*CAP
1 *9082:A 0.00172229
2 *9149:A1 0.00010859
3 *9442:A0 0.000509249
4 *9146:A1 0.000194192
5 *9548:A1 0.000440962
6 *9695:Q 2.63987e-05
7 *818:62 0.000941049
8 *818:43 0.00131838
9 *818:31 0.00279912
10 *818:6 0.000743207
11 *9082:A *822:10 0.000269428
12 *9082:A *863:88 0.000540736
13 *9146:A1 *9146:B2 6.26774e-06
14 *9149:A1 *863:44 2.72449e-05
15 *9442:A0 *9270:A 1.24368e-05
16 *818:43 *9146:B2 8.359e-05
17 *818:43 *9478:B2 0.000266092
18 *818:43 *9847:A 0.000169405
19 *818:43 *826:22 0
20 *818:43 *827:25 0.000324684
21 *9122:B *9082:A 0.000266473
22 *9143:A *9149:A1 4.87953e-05
23 *9145:A2 *818:43 4.09488e-06
24 *9145:B1 *9149:A1 0.000171375
25 *9145:B2 *9149:A1 4.87953e-05
26 *9145:B2 *818:62 2.61337e-05
27 *9146:A2 *9146:A1 1.60023e-05
28 *9146:B1 *9146:A1 3.01824e-05
29 *9146:B1 *818:43 2.04825e-05
30 *9146:C1 *9146:A1 2.84109e-05
31 *9147:A *9082:A 6.50357e-05
32 *9149:A2 *9149:A1 3.57366e-05
33 *9149:B1 *818:62 0.000108538
34 *9154:A2 *818:43 5.20383e-05
35 *9154:B1 *818:43 0
36 *9227:B2 *9082:A 0.000105163
37 *9442:S *9442:A0 9.71197e-05
38 *9448:A1 *9149:A1 0
39 *9476:A1 *9548:A1 0.000270326
40 *9477:A1 *9548:A1 5.33882e-05
41 *9477:A1 *818:31 0.000167375
42 *9548:A0 *9548:A1 0.000236783
43 *9548:S *9548:A1 5.85965e-05
44 *9630:CLK *9082:A 5.76121e-05
45 *9630:RESET_B *9082:A 0.000158903
46 *9632:CLK *9442:A0 0.000132164
47 *9632:D *9442:A0 4.82976e-05
48 *9650:RESET_B *9548:A1 0.000137983
49 *9650:RESET_B *818:6 5.33005e-05
50 *9695:RESET_B *9548:A1 0
51 *9696:CLK *9082:A 2.28598e-05
52 *305:12 *818:43 2.26327e-05
53 *306:10 *818:43 0
54 *322:45 *9082:A 0
55 *322:90 *818:62 7.48091e-05
56 *322:98 *9442:A0 0.000183334
57 *322:98 *818:62 6.42095e-05
58 *347:78 *818:43 7.75022e-05
59 *369:82 *9442:A0 8.70166e-05
60 *537:28 *818:43 0.000312549
61 *537:28 *818:62 7.77326e-05
62 *537:34 *818:43 0
63 *539:80 *818:43 2.42082e-05
64 *539:82 *818:31 5.38011e-05
65 *584:197 *818:43 1.90936e-05
66 *584:199 *818:43 0.000256262
67 *584:201 *818:43 0.000153047
68 *584:215 *818:43 0.000105689
69 *585:8 *9082:A 5.33005e-05
70 *585:8 *818:31 0.00026353
71 *585:14 *818:43 5.59013e-05
72 *585:51 *9548:A1 0
73 *585:51 *818:31 5.31113e-05
74 *592:8 *818:43 7.83221e-05
75 *592:55 *818:43 5.78715e-05
76 *605:10 *9082:A 4.72071e-05
77 *607:8 *9442:A0 1.58163e-05
78 *607:8 *818:62 3.69047e-06
79 *607:12 *9149:A1 0.00012401
80 *738:84 *9548:A1 0
81 *739:190 *9082:A 0.000118486
82 *739:333 *9082:A 0.000256767
83 *785:33 *9082:A 0
84 *817:23 *9082:A 0
*RES
1 *9695:Q *818:6 9.83571 
2 *818:6 *9548:A1 27.3536 
3 *818:6 *818:31 13.8393 
4 *818:31 *818:43 26.8929 
5 *818:43 *9146:A1 16.5321 
6 *818:43 *818:62 11.1607 
7 *818:62 *9442:A0 19.8357 
8 *818:62 *9149:A1 21.925 
9 *818:31 *9082:A 49.2107 
*END

*D_NET *819 0.0093864
*CONN
*I *9150:A1 I *D sky130_fd_sc_hd__a221o_1
*I *9096:A I *D sky130_fd_sc_hd__xnor2_1
*I *9155:A1 I *D sky130_fd_sc_hd__o221a_1
*I *9444:A0 I *D sky130_fd_sc_hd__mux2_1
*I *9550:A1 I *D sky130_fd_sc_hd__mux2_1
*I *9696:Q O *D sky130_fd_sc_hd__dfrtp_2
*CAP
1 *9150:A1 0
2 *9096:A 0.000950654
3 *9155:A1 1.24123e-05
4 *9444:A0 2.63024e-05
5 *9550:A1 0.000137412
6 *9696:Q 0
7 *819:53 0.00106727
8 *819:44 0.000560893
9 *819:27 0.000836881
10 *819:4 0.000516128
11 *9096:A *9454:A0 0.00010096
12 *819:44 *821:74 0.000292701
13 *9108:B *9096:A 0.00049029
14 *9122:A *9444:A0 5.03772e-05
15 *9122:A *819:27 2.63739e-05
16 *9122:A *819:44 4.52236e-05
17 *9150:A2 *819:53 0.000161813
18 *9150:B1 *9096:A 0.000632952
19 *9151:C1 *819:53 5.52302e-05
20 *9152:B2 *819:44 5.74499e-06
21 *9155:A2 *9155:A1 1.04232e-05
22 *9155:A2 *819:44 3.14193e-05
23 *9155:A2 *819:53 2.28499e-05
24 *9156:D_N *819:53 6.62761e-06
25 *9550:S *9550:A1 0.000266473
26 *9630:CLK *9550:A1 0.000123288
27 *9630:RESET_B *819:27 0.000398822
28 *302:10 *9155:A1 9.7049e-06
29 *302:10 *819:44 5.72966e-05
30 *322:37 *9096:A 2.32517e-05
31 *322:41 *9096:A 5.74499e-06
32 *322:41 *819:53 3.69047e-06
33 *347:78 *9444:A0 9.71197e-05
34 *347:78 *9550:A1 0.000353073
35 *388:16 *9096:A 4.03318e-05
36 *566:48 *819:44 0.000268514
37 *566:62 *9550:A1 3.71496e-05
38 *610:22 *9096:A 4.43256e-05
39 *611:20 *9096:A 0.00100144
40 *611:34 *9550:A1 4.72818e-05
41 *739:221 *819:44 0.000124534
42 *785:33 *819:27 5.73285e-05
43 *785:33 *819:44 0.000162598
44 *815:21 *9096:A 6.19181e-05
45 *817:23 *819:27 3.45116e-05
46 *817:25 *819:44 0.000127068
*RES
1 *9696:Q *819:4 9.3 
2 *819:4 *9550:A1 23.3536 
3 *819:4 *819:27 10.625 
4 *819:27 *9444:A0 14.7464 
5 *819:27 *819:44 15.9286 
6 *819:44 *9155:A1 9.72857 
7 *819:44 *819:53 2.58929 
8 *819:53 *9096:A 39.1036 
9 *819:53 *9150:A1 9.3 
*END

*D_NET *820 0.0110376
*CONN
*I *9446:A0 I *D sky130_fd_sc_hd__mux2_1
*I *9094:A I *D sky130_fd_sc_hd__xor2_1
*I *9146:B2 I *D sky130_fd_sc_hd__a221o_1
*I *9154:A1 I *D sky130_fd_sc_hd__o22a_1
*I *9552:A1 I *D sky130_fd_sc_hd__mux2_1
*I *9697:Q O *D sky130_fd_sc_hd__dfrtp_2
*CAP
1 *9446:A0 0.000125139
2 *9094:A 0.000291171
3 *9146:B2 9.52911e-05
4 *9154:A1 3.82418e-05
5 *9552:A1 4.41806e-05
6 *9697:Q 0.000329693
7 *820:65 0.0021534
8 *820:29 0.00266964
9 *820:25 0.00103206
10 *820:10 0.000606916
11 *9446:A0 *895:120 0
12 *9446:A0 *895:122 0
13 *820:10 *895:120 0
14 *820:25 *895:120 0
15 *820:65 *9148:A 0.0001138
16 *820:65 *824:23 3.67142e-05
17 *1160:DIODE *820:25 0
18 *1189:DIODE *9094:A 4.01768e-05
19 *1212:DIODE *820:10 0
20 *9076:B *820:65 2.89114e-05
21 *9080:A *820:65 0.000137934
22 *9080:B *820:65 0.000399841
23 *9145:A2 *9146:B2 5.41794e-05
24 *9146:A1 *9146:B2 6.26774e-06
25 *9146:B1 *9146:B2 1.28809e-05
26 *9151:A2 *820:65 0.000396886
27 *9151:C1 *820:65 6.09919e-05
28 *9152:A1 *820:65 3.87078e-05
29 *9152:A2 *820:65 7.13226e-06
30 *9152:B2 *820:65 6.26774e-06
31 *9152:C1 *820:65 5.97398e-05
32 *9154:A2 *820:29 0.000183298
33 *9154:A2 *820:65 5.52302e-05
34 *9154:B1 *9146:B2 5.74562e-05
35 *9154:B1 *9154:A1 0
36 *9154:B1 *820:65 9.90431e-05
37 *9155:C1 *820:65 0.00017058
38 *9242:A1 *9094:A 0.000430638
39 *9440:S *820:65 5.33005e-05
40 *9441:A *820:65 0.00014285
41 *9447:A *9446:A0 0
42 *9447:A *820:25 0
43 *9552:A0 *9552:A1 5.71472e-05
44 *9552:A0 *820:10 0
45 *9555:A *9552:A1 7.77751e-05
46 *9555:A *820:10 6.79842e-05
47 *319:14 *820:65 0.00053662
48 *322:150 *9446:A0 3.40128e-05
49 *344:146 *820:65 0
50 *592:77 *820:10 7.60306e-05
51 *592:81 *820:10 3.67142e-05
52 *739:301 *820:10 0
53 *743:96 *820:65 8.9163e-05
54 *818:43 *9146:B2 8.359e-05
*RES
1 *9697:Q *820:10 19.7286 
2 *820:10 *9552:A1 15.1571 
3 *820:10 *820:25 3.82143 
4 *820:25 *820:29 14.8929 
5 *820:29 *9154:A1 10.0321 
6 *820:29 *9146:B2 20.6795 
7 *820:29 *820:65 43.8929 
8 *820:65 *9094:A 16.8179 
9 *820:25 *9446:A0 16.3536 
*END

*D_NET *821 0.0124157
*CONN
*I *9101:A I *D sky130_fd_sc_hd__xor2_1
*I *9154:B2 I *D sky130_fd_sc_hd__o22a_1
*I *9145:A1 I *D sky130_fd_sc_hd__a22o_1
*I *9448:A0 I *D sky130_fd_sc_hd__mux2_1
*I *9554:A1 I *D sky130_fd_sc_hd__mux2_1
*I *9698:Q O *D sky130_fd_sc_hd__dfrtp_2
*CAP
1 *9101:A 0
2 *9154:B2 0.000251997
3 *9145:A1 0
4 *9448:A0 0.000238617
5 *9554:A1 5.63677e-05
6 *9698:Q 0
7 *821:84 0.0019039
8 *821:74 0.00258635
9 *821:49 0.00125
10 *821:25 0.000418368
11 *821:10 0.000346307
12 *821:4 0.000425754
13 *9154:B2 *9847:A 0
14 *9154:B2 *827:25 0
15 *9448:A0 *863:44 8.83783e-05
16 *821:10 *863:44 7.38526e-05
17 *821:25 *863:44 0.000106758
18 *821:74 *9139:A 0
19 *821:84 *822:14 0.00057215
20 *9081:A *821:84 0.000391127
21 *9081:B *821:84 0.000184745
22 *9097:A *821:84 9.90431e-05
23 *9097:B *821:84 0
24 *9141:A *9448:A0 7.83366e-05
25 *9145:A2 *9448:A0 1.97695e-05
26 *9145:B1 *821:25 1.02504e-05
27 *9145:B2 *9448:A0 5.52302e-05
28 *9155:B1 *821:74 3.57366e-05
29 *9155:C1 *821:74 0.000139913
30 *9448:A1 *9448:A0 5.52238e-05
31 *9448:S *9448:A0 9.71197e-05
32 *9457:A1 *821:84 6.44636e-05
33 *9479:A1 *9154:B2 0
34 *9554:A0 *9554:A1 0.000100625
35 *9554:A0 *821:25 3.92854e-05
36 *9653:RESET_B *821:74 9.84792e-05
37 *244:12 *821:84 1.07719e-05
38 *253:12 *821:84 0.000127446
39 *260:10 *821:84 2.27416e-05
40 *267:10 *821:84 0.000114131
41 *296:14 *821:84 3.65178e-05
42 *302:10 *821:74 2.14658e-05
43 *305:12 *9448:A0 9.02232e-05
44 *537:28 *821:10 6.74932e-05
45 *537:28 *821:25 0.000394005
46 *539:60 *821:74 0.000382532
47 *539:66 *821:74 0.000358977
48 *566:48 *821:74 2.49484e-05
49 *566:56 *821:84 9.60939e-05
50 *566:326 *9554:A1 0.00018372
51 *566:328 *9554:A1 5.71472e-05
52 *592:55 *821:49 9.23451e-05
53 *592:57 *821:10 3.18676e-05
54 *592:57 *821:49 4.43256e-05
55 *817:25 *821:74 0.000178092
56 *819:44 *821:74 0.000292701
*RES
1 *9698:Q *821:4 9.3 
2 *821:4 *821:10 6.98214 
3 *821:10 *9554:A1 15.9786 
4 *821:10 *821:25 10.0179 
5 *821:25 *9448:A0 24.1036 
6 *821:25 *9145:A1 9.3 
7 *821:4 *821:49 3.82143 
8 *821:49 *9154:B2 22.3714 
9 *821:49 *821:74 25.0536 
10 *821:74 *821:84 43.1964 
11 *821:84 *9101:A 9.3 
*END

*D_NET *822 0.00661025
*CONN
*I *9108:A I *D sky130_fd_sc_hd__xnor2_2
*I *9450:A0 I *D sky130_fd_sc_hd__mux2_1
*I *9139:A I *D sky130_fd_sc_hd__inv_2
*I *9556:A1 I *D sky130_fd_sc_hd__mux2_1
*I *9699:Q O *D sky130_fd_sc_hd__dfrtp_2
*CAP
1 *9108:A 0.000454515
2 *9450:A0 0.000361487
3 *9139:A 3.00142e-05
4 *9556:A1 5.71328e-05
5 *9699:Q 0.000199639
6 *822:29 0.000569233
7 *822:14 0.000457342
8 *822:10 0.000876631
9 *9450:A0 *828:10 0
10 *822:10 *863:88 1.55885e-05
11 *822:29 *9556:A0 0
12 *9082:A *822:10 0.000269428
13 *9140:A *9450:A0 7.02611e-05
14 *9147:A *822:14 0.000142856
15 *9151:A1 *9450:A0 1.02504e-05
16 *9155:C1 *9450:A0 0.000257484
17 *9451:A *9450:A0 0.000142725
18 *9633:D *822:29 5.48581e-05
19 *9699:RESET_B *822:10 0.000185643
20 *302:10 *9139:A 3.57366e-05
21 *322:45 *9108:A 9.88136e-05
22 *322:45 *822:10 0.000109737
23 *322:67 *9450:A0 2.77258e-05
24 *322:77 *9450:A0 0
25 *566:56 *9556:A1 4.2322e-05
26 *566:56 *822:14 0.00012105
27 *566:60 *822:29 1.02504e-05
28 *611:20 *9108:A 0.000835027
29 *611:34 *822:29 6.16744e-05
30 *739:221 *9556:A1 0.000109795
31 *739:221 *822:14 0.000161947
32 *739:333 *822:10 0.00014183
33 *817:25 *9450:A0 2.00751e-05
34 *817:25 *822:29 0.000107026
35 *821:74 *9139:A 0
36 *821:84 *822:14 0.00057215
*RES
1 *9699:Q *822:10 19.6571 
2 *822:10 *822:14 12.0179 
3 *822:14 *9556:A1 11.1036 
4 *822:14 *822:29 8.57143 
5 *822:29 *9139:A 14.5321 
6 *822:29 *9450:A0 20.05 
7 *822:10 *9108:A 24.2821 
*END

*D_NET *823 0.00627403
*CONN
*I *9558:A1 I *D sky130_fd_sc_hd__mux2_1
*I *9114:A I *D sky130_fd_sc_hd__xnor2_2
*I *9452:A0 I *D sky130_fd_sc_hd__mux2_1
*I *9144:A I *D sky130_fd_sc_hd__inv_2
*I *9700:Q O *D sky130_fd_sc_hd__dfrtp_4
*CAP
1 *9558:A1 0.000358981
2 *9114:A 0.000831509
3 *9452:A0 0
4 *9144:A 0.00026113
5 *9700:Q 8.59469e-05
6 *823:36 0.00153642
7 *823:23 0.000345929
8 *823:8 0.000347077
9 *1163:DIODE *9558:A1 0
10 *9145:A2 *9144:A 0
11 *9149:B1 *9144:A 0.000109392
12 *9149:B1 *823:8 6.87834e-06
13 *9441:A *9114:A 0.000183713
14 *9452:A1 *823:36 5.52302e-05
15 *9628:CLK *9114:A 0
16 *9628:CLK *9144:A 0
17 *9628:RESET_B *9114:A 0
18 *9654:D *9114:A 0
19 *9654:D *9558:A1 0
20 *9700:RESET_B *823:8 0
21 *9700:RESET_B *823:36 0.000269428
22 *9734:A *9558:A1 5.71472e-05
23 *306:10 *9144:A 0
24 *312:22 *9114:A 0.0010091
25 *322:77 *9114:A 4.03318e-05
26 *322:86 *823:36 9.28602e-05
27 *322:90 *823:36 3.65178e-05
28 *344:208 *9114:A 0.000431976
29 *369:201 *9558:A1 0.00012352
30 *539:37 *9558:A1 0
31 *566:24 *9558:A1 5.52302e-05
32 *584:197 *9558:A1 0
33 *595:60 *9558:A1 0
34 *595:62 *9114:A 0
35 *609:36 *823:8 3.5707e-05
*RES
1 *9700:Q *823:8 15.4429 
2 *823:8 *9144:A 18.0321 
3 *823:8 *823:23 4.5 
4 *823:23 *9452:A0 9.3 
5 *823:23 *823:36 10.5179 
6 *823:36 *9114:A 33.5321 
7 *823:36 *9558:A1 20.8893 
*END

*D_NET *824 0.00448407
*CONN
*I *9560:A1 I *D sky130_fd_sc_hd__mux2_1
*I *9076:A I *D sky130_fd_sc_hd__xnor2_1
*I *9148:A I *D sky130_fd_sc_hd__inv_2
*I *9454:A0 I *D sky130_fd_sc_hd__mux2_1
*I *9701:Q O *D sky130_fd_sc_hd__dfrtp_1
*CAP
1 *9560:A1 0.000145443
2 *9076:A 0
3 *9148:A 7.88122e-05
4 *9454:A0 0.000257082
5 *9701:Q 0
6 *824:23 0.000100302
7 *824:8 0.000797181
8 *824:6 0.000664052
9 *1164:DIODE *9560:A1 7.91826e-05
10 *9076:B *9148:A 5.52302e-05
11 *9096:A *9454:A0 0.00010096
12 *9150:B1 *9454:A0 5.71472e-05
13 *9463:D_N *9560:A1 5.03772e-05
14 *238:8 *824:8 0
15 *238:14 *9454:A0 0
16 *276:40 *824:8 9.15186e-06
17 *319:14 *9148:A 0.000356028
18 *319:14 *824:23 8.57023e-05
19 *388:16 *9454:A0 0.00040576
20 *388:16 *824:8 0.000367396
21 *536:12 *9560:A1 0.000309266
22 *566:358 *9560:A1 9.90367e-05
23 *610:22 *9454:A0 4.18895e-05
24 *740:10 *824:8 6.35123e-05
25 *740:101 *9560:A1 6.9253e-05
26 *740:101 *824:8 5.99221e-05
27 *743:110 *824:8 0
28 *807:12 *9560:A1 7.50601e-05
29 *807:12 *824:8 5.80706e-06
30 *815:21 *824:8 0
31 *820:65 *9148:A 0.0001138
32 *820:65 *824:23 3.67142e-05
*RES
1 *9701:Q *824:6 13.8 
2 *824:6 *824:8 10.75 
3 *824:8 *9454:A0 20.0321 
4 *824:8 *824:23 5.44643 
5 *824:23 *9148:A 12.7107 
6 *824:23 *9076:A 9.3 
7 *824:6 *9560:A1 18.7464 
*END

*D_NET *825 0.000908688
*CONN
*I *9832:A I *D sky130_fd_sc_hd__dlygate4sd3_1
*I *9641:Q O *D sky130_fd_sc_hd__dfrtp_1
*CAP
1 *9832:A 0.000328513
2 *9641:Q 0.000328513
3 *9467:A1 *9832:A 3.92757e-05
4 *9562:A0 *9832:A 5.52302e-05
5 *9562:S *9832:A 0.000157157
6 *9703:D *9832:A 0
7 *817:23 *9832:A 0
*RES
1 *9641:Q *9832:A 33.6 
*END

*D_NET *826 0.00249262
*CONN
*I *9764:A I *D sky130_fd_sc_hd__dlygate4sd3_1
*I *9651:Q O *D sky130_fd_sc_hd__dfrtp_1
*CAP
1 *9764:A 0
2 *9651:Q 0.000743771
3 *826:22 0.000743771
4 *826:22 *863:28 7.83659e-05
5 *9477:A1 *826:22 0.000136958
6 *9551:A *826:22 0
7 *9650:CLK *826:22 4.8843e-05
8 *9650:RESET_B *826:22 4.50774e-05
9 *9696:D *826:22 0.000242056
10 *347:78 *826:22 2.05821e-05
11 *369:10 *826:22 0.000142856
12 *584:215 *826:22 7.6644e-05
13 *585:14 *826:22 4.92928e-05
14 *585:16 *826:22 2.00884e-05
15 *592:8 *826:22 6.65398e-05
16 *592:14 *826:22 7.77751e-05
17 *738:132 *826:22 0
18 *818:43 *826:22 0
*RES
1 *9651:Q *826:22 41.6571 
2 *826:22 *9764:A 9.3 
*END

*D_NET *827 0.00229458
*CONN
*I *9847:A I *D sky130_fd_sc_hd__dlygate4sd3_1
*I *9792:A I *D sky130_fd_sc_hd__dlygate4sd3_1
*I *9478:B2 I *D sky130_fd_sc_hd__a22o_1
*I *9652:Q O *D sky130_fd_sc_hd__dfrtp_1
*CAP
1 *9847:A 8.70368e-05
2 *9792:A 2.76349e-05
3 *9478:B2 0.000145964
4 *9652:Q 7.26651e-05
5 *827:25 0.000302681
6 *827:8 0.000406639
7 *9154:B2 *9847:A 0
8 *9154:B2 *827:25 0
9 *9479:A1 *827:25 0
10 *9652:RESET_B *827:8 9.60875e-05
11 *9653:D *9478:B2 9.25014e-06
12 *9653:D *827:25 0.00010326
13 *539:76 *9478:B2 9.60875e-05
14 *566:324 *9792:A 2.89114e-05
15 *592:55 *9478:B2 0.000132282
16 *592:55 *827:25 2.58997e-05
17 *818:43 *9478:B2 0.000266092
18 *818:43 *9847:A 0.000169405
19 *818:43 *827:25 0.000324684
*RES
1 *9652:Q *827:8 14.7464 
2 *827:8 *9478:B2 18.2107 
3 *827:8 *827:25 5.03571 
4 *827:25 *9792:A 14.3357 
5 *827:25 *9847:A 16.05 
*END

*D_NET *828 0.00412897
*CONN
*I *9797:A I *D sky130_fd_sc_hd__dlygate4sd3_1
*I *9479:B2 I *D sky130_fd_sc_hd__a22o_1
*I *9556:A0 I *D sky130_fd_sc_hd__mux2_1
*I *9653:Q O *D sky130_fd_sc_hd__dfrtp_1
*CAP
1 *9797:A 0.000634303
2 *9479:B2 8.3023e-05
3 *9556:A0 0.000202817
4 *9653:Q 6.59684e-05
5 *828:10 0.000436166
6 *828:6 0.000850598
7 *9151:A1 *9797:A 0
8 *9151:B1 *9797:A 0
9 *9155:B1 *9797:A 8.51066e-05
10 *9441:A *9797:A 0.000117468
11 *9450:A0 *828:10 0
12 *9451:A *828:10 0
13 *9479:A1 *828:10 0
14 *9557:A *9556:A0 1.91894e-05
15 *9633:CLK *9479:B2 6.05161e-06
16 *9633:CLK *9556:A0 0.00015234
17 *9633:D *9556:A0 1.97381e-05
18 *9633:D *828:10 3.2534e-05
19 *9633:RESET_B *9479:B2 4.18895e-05
20 *9653:RESET_B *828:10 0.000101545
21 *9699:D *9479:B2 1.15172e-05
22 *539:60 *9797:A 0.000352053
23 *539:66 *9556:A0 0
24 *539:66 *9797:A 8.66063e-05
25 *539:66 *828:6 9.90367e-05
26 *539:66 *828:10 0
27 *539:72 *9556:A0 0
28 *566:44 *9797:A 0.000179596
29 *611:34 *9556:A0 8.16036e-05
30 *738:144 *9479:B2 0.000144773
31 *739:221 *9556:A0 5.71472e-05
32 *817:25 *9797:A 0.000143887
33 *817:40 *9797:A 0.00012401
34 *822:29 *9556:A0 0
*RES
1 *9653:Q *828:6 10.2464 
2 *828:6 *828:10 7.35714 
3 *828:10 *9556:A0 18.5679 
4 *828:10 *9479:B2 15.9964 
5 *828:6 *9797:A 31.4607 
*END

*D_NET *829 0.00193144
*CONN
*I *9760:A I *D sky130_fd_sc_hd__dlygate4sd3_1
*I *9836:A I *D sky130_fd_sc_hd__dlygate4sd3_1
*I *9654:Q O *D sky130_fd_sc_hd__dfrtp_1
*CAP
1 *9760:A 0.000143927
2 *9836:A 0
3 *9654:Q 0.000222683
4 *829:10 0.000366611
5 *1102:DIODE *829:10 9.90431e-05
6 *9465:A *9760:A 0.000122091
7 *9465:B *9760:A 0.000140126
8 *9480:A1 *829:10 0
9 *9480:B2 *9760:A 0.000202224
10 *9480:B2 *829:10 0.00010096
11 *344:208 *9760:A 0.000167149
12 *344:208 *829:10 0.000315165
13 *344:214 *9760:A 6.05161e-06
14 *539:50 *829:10 3.69697e-05
15 *796:42 *9760:A 8.43535e-06
*RES
1 *9654:Q *829:10 18.8179 
2 *829:10 *9836:A 13.8 
3 *829:10 *9760:A 18.2464 
*END

*D_NET *830 0.00756396
*CONN
*I *9484:A1 I *D sky130_fd_sc_hd__a22o_1
*I *9482:B2 I *D sky130_fd_sc_hd__a22o_1
*I *9560:A0 I *D sky130_fd_sc_hd__mux2_1
*I *9655:Q O *D sky130_fd_sc_hd__dfrtp_1
*CAP
1 *9484:A1 0.00097357
2 *9482:B2 0.000412515
3 *9560:A0 0.000183848
4 *9655:Q 2.23854e-05
5 *830:16 0.00105405
6 *830:6 0.00145365
7 *1105:DIODE *9484:A1 0.00010096
8 *9066:A *9484:A1 0.000840634
9 *9068:A *9484:A1 5.71472e-05
10 *9136:D *9484:A1 0.000225988
11 *9221:A1 *9482:B2 4.75428e-05
12 *9236:A2 *9482:B2 0
13 *9237:B *9482:B2 6.78055e-06
14 *9482:B1 *9482:B2 2.25961e-05
15 *9484:A2 *9484:A1 0.000182598
16 *9655:D *830:16 3.18676e-05
17 *9701:CLK *9560:A0 0.00012501
18 *9761:A *9482:B2 2.27416e-05
19 *9779:A *9484:A1 1.59373e-05
20 *238:8 *9560:A0 0
21 *597:20 *9482:B2 2.31791e-05
22 *597:20 *9560:A0 0.000171391
23 *597:20 *830:16 0.000275877
24 *756:10 *9560:A0 3.47737e-05
25 *793:43 *9484:A1 4.06427e-05
26 *794:18 *9484:A1 0.000123673
27 *794:40 *9484:A1 2.89114e-05
28 *794:47 *9484:A1 0.000142053
29 *796:20 *9482:B2 0.000171368
30 *796:20 *9560:A0 3.17148e-05
31 *796:42 *830:16 5.33005e-05
32 *796:82 *9484:A1 8.25843e-06
33 *796:82 *830:16 0.000679004
*RES
1 *9655:Q *830:6 9.72857 
2 *830:6 *830:16 16.1786 
3 *830:16 *9560:A0 17.5679 
4 *830:16 *9482:B2 20.1929 
5 *830:6 *9484:A1 29.55 
*END

*D_NET *831 0.000571038
*CONN
*I *9778:A I *D sky130_fd_sc_hd__dlygate4sd3_1
*I *9833:A I *D sky130_fd_sc_hd__dlygate4sd3_1
*I *9656:Q O *D sky130_fd_sc_hd__dfrtp_1
*CAP
1 *9778:A 3.11109e-05
2 *9833:A 9.76199e-05
3 *9656:Q 2.76557e-05
4 *831:6 0.000156386
5 *9484:B2 *9833:A 3.99614e-06
6 *9485:B2 *9833:A 0.000150625
7 *9656:RESET_B *9778:A 1.98839e-05
8 *9656:RESET_B *831:6 2.89016e-05
9 *299:16 *9833:A 0
10 *791:46 *9833:A 5.48581e-05
*RES
1 *9656:Q *831:6 9.83571 
2 *831:6 *9833:A 20.9786 
3 *831:6 *9778:A 9.83571 
*END

*D_NET *832 0.00285361
*CONN
*I *9782:A I *D sky130_fd_sc_hd__dlygate4sd3_1
*I *9837:A I *D sky130_fd_sc_hd__dlygate4sd3_1
*I *9657:Q O *D sky130_fd_sc_hd__dfrtp_1
*CAP
1 *9782:A 2.23854e-05
2 *9837:A 0.000414972
3 *9657:Q 0.000394263
4 *832:18 0.000831621
5 *9485:B2 *9837:A 0.000274345
6 *9534:A *832:18 2.84494e-05
7 *9659:CLK *832:18 0.000123475
8 *9659:D *832:18 5.52238e-05
9 *9659:RESET_B *9782:A 0
10 *9659:RESET_B *9837:A 0.000144941
11 *9659:RESET_B *832:18 8.36738e-05
12 *584:342 *832:18 3.52562e-05
13 *588:98 *832:18 9.71197e-05
14 *789:16 *9837:A 0
15 *791:46 *9837:A 0.000174805
16 *802:16 *832:18 0.000173083
*RES
1 *9657:Q *832:18 25.8714 
2 *832:18 *9837:A 26.8357 
3 *832:18 *9782:A 9.72857 
*END

*D_NET *833 0.00228104
*CONN
*I *9798:A I *D sky130_fd_sc_hd__dlygate4sd3_1
*I *9831:A I *D sky130_fd_sc_hd__dlygate4sd3_1
*I *9658:Q O *D sky130_fd_sc_hd__dfrtp_1
*CAP
1 *9798:A 0.000568118
2 *9831:A 0.000112267
3 *9658:Q 0
4 *833:4 0.000680385
5 *9798:A *9762:A 6.74911e-05
6 *9462:A2 *9831:A 0.000169373
7 *9640:CLK *9798:A 0
8 *9657:RESET_B *9798:A 0
9 *9657:RESET_B *9831:A 0
10 *9658:RESET_B *9831:A 0.000183713
11 *584:342 *9798:A 0
12 *584:361 *9798:A 7.48091e-05
13 *616:14 *9798:A 0.000151619
14 *769:12 *9798:A 0.000273269
*RES
1 *9658:Q *833:4 9.3 
2 *833:4 *9831:A 12.7286 
3 *833:4 *9798:A 30.1571 
*END

*D_NET *834 0.000385466
*CONN
*I *9762:A I *D sky130_fd_sc_hd__dlygate4sd3_1
*I *9659:Q O *D sky130_fd_sc_hd__dfrtp_1
*CAP
1 *9762:A 9.49107e-05
2 *9659:Q 9.49107e-05
3 *9798:A *9762:A 6.74911e-05
4 *616:14 *9762:A 0.000128154
*RES
1 *9659:Q *9762:A 29.7786 
*END

*D_NET *835 0.00966424
*CONN
*I *9488:B2 I *D sky130_fd_sc_hd__a22o_1
*I *9537:A0 I *D sky130_fd_sc_hd__mux2_1
*I *9489:A1 I *D sky130_fd_sc_hd__a22o_1
*I *9660:Q O *D sky130_fd_sc_hd__dfrtp_1
*CAP
1 *9488:B2 4.46995e-05
2 *9537:A0 0.000227889
3 *9489:A1 0.00120253
4 *9660:Q 0.000337171
5 *835:28 0.00262183
6 *835:14 0.00157329
7 *9489:A1 *9497:A1 0.000491107
8 *9489:A1 *844:29 0
9 *835:28 *9497:A1 2.14757e-05
10 *835:28 *844:29 0.0001399
11 *1114:DIODE *835:28 0.000230482
12 *9067:B *9489:A1 0
13 *9069:B *9489:A1 0.000181349
14 *9488:A2 *9488:B2 1.97695e-05
15 *9488:B1 *835:14 8.49318e-05
16 *9488:B1 *835:28 0.000103267
17 *9489:B2 *9489:A1 5.23142e-05
18 *9538:A *9537:A0 6.09919e-05
19 *9538:A *835:28 5.33005e-05
20 *9542:A *9489:A1 5.62995e-05
21 *9543:A0 *9489:A1 6.05161e-06
22 *9660:RESET_B *835:14 0.000146523
23 *9692:D *9489:A1 6.68971e-06
24 *9693:D *9489:A1 5.19842e-06
25 *232:18 *9537:A0 5.03694e-05
26 *232:18 *835:28 0.000100823
27 *442:52 *9489:A1 0
28 *442:60 *9489:A1 0.000188008
29 *540:181 *835:28 0.000185547
30 *540:189 *835:28 7.15905e-06
31 *540:248 *835:28 6.13217e-05
32 *541:91 *9537:A0 0
33 *541:243 *835:28 0.000651954
34 *541:322 *835:14 7.2277e-05
35 *589:20 *835:14 7.46814e-05
36 *589:20 *835:28 0.000158497
37 *589:35 *9488:B2 1.04232e-05
38 *743:145 *9489:A1 5.07157e-05
39 *791:38 *835:14 5.31549e-05
40 *793:10 *9537:A0 5.33005e-05
41 *794:12 *9489:A1 2.8833e-05
42 *794:70 *9489:A1 4.35048e-05
43 *803:12 *9537:A0 9.92409e-05
44 *803:12 *835:28 0.000107367
*RES
1 *9660:Q *835:14 19.6036 
2 *835:14 *835:28 36.5536 
3 *835:28 *9489:A1 38.8714 
4 *835:28 *9537:A0 24.0679 
5 *835:14 *9488:B2 14.8357 
*END

*D_NET *836 0.00602288
*CONN
*I *9468:B2 I *D sky130_fd_sc_hd__a22o_1
*I *9566:A0 I *D sky130_fd_sc_hd__mux2_1
*I *9469:A1 I *D sky130_fd_sc_hd__a22o_1
*I *9642:Q O *D sky130_fd_sc_hd__dfrtp_1
*CAP
1 *9468:B2 0.000273997
2 *9566:A0 0.000619361
3 *9469:A1 0.000621683
4 *9642:Q 4.86742e-05
5 *836:10 0.00131257
6 *836:8 0.000394196
7 *9566:A0 *9566:A1 5.71472e-05
8 *9566:A0 *9572:A1 9.47028e-05
9 *958:DIODE *9468:B2 5.83304e-05
10 *958:DIODE *836:8 6.05161e-06
11 *958:DIODE *836:10 0.000100823
12 *1078:DIODE *9468:B2 9.76419e-05
13 *1080:DIODE *9469:A1 0.000318107
14 *1081:DIODE *9469:A1 3.98559e-05
15 *9212:A *9566:A0 5.52302e-05
16 *9469:A2 *9469:A1 3.57366e-05
17 *9469:B2 *9469:A1 0.000582901
18 *9572:S *9468:B2 0
19 *9572:S *9469:A1 0
20 *9572:S *836:10 0
21 *9642:RESET_B *836:8 1.21258e-05
22 *9643:CLK *9469:A1 0
23 *9643:RESET_B *9469:A1 0.000100831
24 *9644:D *9469:A1 0
25 *9707:RESET_B *9469:A1 0.000148196
26 *9711:RESET_B *9469:A1 3.90513e-05
27 *9843:A *9468:B2 0
28 *537:176 *9469:A1 0.000139907
29 *539:148 *9469:A1 2.89016e-05
30 *566:130 *9468:B2 0
31 *593:67 *9566:A0 0.000183412
32 *739:16 *9469:A1 0.000312199
33 *739:18 *9469:A1 1.39726e-05
34 *739:26 *9469:A1 3.48705e-05
35 *739:92 *9468:B2 2.49484e-05
36 *739:92 *9469:A1 0.000211346
37 *739:92 *836:10 1.18064e-05
38 *739:153 *9468:B2 4.43046e-05
*RES
1 *9642:Q *836:8 14.3357 
2 *836:8 *836:10 1.64286 
3 *836:10 *9469:A1 32.3 
4 *836:10 *9566:A0 22.9964 
5 *836:8 *9468:B2 18.7464 
*END

*D_NET *837 0.00137651
*CONN
*I *9780:A I *D sky130_fd_sc_hd__dlygate4sd3_1
*I *9838:A I *D sky130_fd_sc_hd__dlygate4sd3_1
*I *9661:Q O *D sky130_fd_sc_hd__dfrtp_1
*CAP
1 *9780:A 0.000250272
2 *9838:A 0.000127489
3 *9661:Q 0.000229925
4 *837:6 0.000607687
5 *9539:A0 *9838:A 0
6 *9661:CLK *9780:A 5.52238e-05
7 *9661:D *9780:A 2.89016e-05
8 *9661:RESET_B *9780:A 7.70134e-05
*RES
1 *9661:Q *837:6 13.1214 
2 *837:6 *9838:A 20.55 
3 *837:6 *9780:A 13.9429 
*END

*D_NET *838 0.00228272
*CONN
*I *9839:A I *D sky130_fd_sc_hd__dlygate4sd3_1
*I *9785:A I *D sky130_fd_sc_hd__dlygate4sd3_1
*I *9662:Q O *D sky130_fd_sc_hd__dfrtp_1
*CAP
1 *9839:A 0.000194993
2 *9785:A 8.24173e-05
3 *9662:Q 0.000431787
4 *838:10 0.000709197
5 *1197:DIODE *9785:A 8.17274e-05
6 *9541:A1 *9839:A 9.46929e-05
7 *9663:CLK *838:10 9.76689e-05
8 *9663:D *9839:A 5.75896e-05
9 *9663:D *838:10 0.000125057
10 *9663:RESET_B *838:10 3.07455e-05
11 *9692:RESET_B *9785:A 9.71197e-05
12 *540:331 *9839:A 9.97648e-05
13 *540:331 *838:10 6.74911e-05
14 *598:129 *838:10 6.05161e-06
15 *743:164 *9839:A 1.52978e-05
16 *743:164 *838:10 6.5185e-05
17 *805:8 *9785:A 2.59355e-05
*RES
1 *9662:Q *838:10 20.4964 
2 *838:10 *9785:A 15.5679 
3 *838:10 *9839:A 18.5321 
*END

*D_NET *839 0.000637044
*CONN
*I *9767:A I *D sky130_fd_sc_hd__dlygate4sd3_1
*I *9835:A I *D sky130_fd_sc_hd__dlygate4sd3_1
*I *9663:Q O *D sky130_fd_sc_hd__dfrtp_1
*CAP
1 *9767:A 0
2 *9835:A 9.12086e-05
3 *9663:Q 0.000143299
4 *839:10 0.000234508
5 *9492:A1 *9835:A 0
6 *9492:B1 *9835:A 0
7 *9768:A *9835:A 2.79092e-05
8 *373:14 *9835:A 0
9 *541:168 *9835:A 1.02504e-05
10 *541:189 *9835:A 0.000129868
*RES
1 *9663:Q *839:10 11.6214 
2 *839:10 *9835:A 20.675 
3 *839:10 *9767:A 9.3 
*END

*D_NET *840 0.00333311
*CONN
*I *9515:A0 I *D sky130_fd_sc_hd__mux2_1
*I *9493:A1 I *D sky130_fd_sc_hd__a22o_1
*I *9492:B2 I *D sky130_fd_sc_hd__a22o_1
*I *9664:Q O *D sky130_fd_sc_hd__dfrtp_1
*CAP
1 *9515:A0 0
2 *9493:A1 0.000163969
3 *9492:B2 2.23854e-05
4 *9664:Q 0.000591087
5 *840:25 0.000382056
6 *840:16 0.00083156
7 *9491:B2 *840:16 0.000272658
8 *9492:A1 *840:16 0.00020455
9 *9492:A2 *9492:B2 0
10 *9493:A2 *9493:A1 2.56765e-05
11 *9493:B2 *9493:A1 9.87672e-05
12 *9515:A1 *840:25 5.33005e-05
13 *9518:A *9492:B2 0
14 *9518:A *840:25 1.59373e-05
15 *9680:D *840:25 5.71472e-05
16 *373:14 *840:16 0.00024631
17 *442:79 *840:25 2.84109e-05
18 *442:90 *840:25 4.60153e-05
19 *540:284 *9493:A1 5.49544e-05
20 *589:61 *9493:A1 0.000238324
21 *790:14 *9493:A1 0
*RES
1 *9664:Q *840:16 29.3893 
2 *840:16 *9492:B2 9.72857 
3 *840:16 *840:25 3.82143 
4 *840:25 *9493:A1 22.4071 
5 *840:25 *9515:A0 9.3 
*END

*D_NET *841 0.00240969
*CONN
*I *9845:A I *D sky130_fd_sc_hd__dlygate4sd3_1
*I *9802:A I *D sky130_fd_sc_hd__dlygate4sd3_1
*I *9494:A1 I *D sky130_fd_sc_hd__a22o_1
*I *9665:Q O *D sky130_fd_sc_hd__dfrtp_1
*CAP
1 *9845:A 0.000159195
2 *9802:A 0
3 *9494:A1 0.000151399
4 *9665:Q 0.000115333
5 *841:10 0.000312517
6 *841:8 0.000435646
7 *9494:A1 *9495:A1 2.89016e-05
8 *9494:A1 *9846:A 5.33433e-05
9 *9494:A1 *842:14 0.000175519
10 *841:10 *842:10 0.00014279
11 *841:10 *842:14 1.02504e-05
12 *1127:DIODE *9494:A1 2.27416e-05
13 *9494:B2 *9494:A1 5.52238e-05
14 *9517:A0 *9845:A 0
15 *9665:RESET_B *9845:A 3.90513e-05
16 *9665:RESET_B *841:8 3.32631e-05
17 *9665:RESET_B *841:10 7.6021e-05
18 *9666:D *841:10 0
19 *9803:A *9494:A1 0.000356028
20 *540:288 *9494:A1 4.69993e-05
21 *746:118 *9494:A1 9.47456e-05
22 *746:118 *841:10 0.000100726
*RES
1 *9665:Q *841:8 15.1571 
2 *841:8 *841:10 4.375 
3 *841:10 *9494:A1 19.8893 
4 *841:10 *9802:A 13.8 
5 *841:8 *9845:A 16.9607 
*END

*D_NET *842 0.00365884
*CONN
*I *9790:A I *D sky130_fd_sc_hd__dlygate4sd3_1
*I *9846:A I *D sky130_fd_sc_hd__dlygate4sd3_1
*I *9495:A1 I *D sky130_fd_sc_hd__a22o_1
*I *9666:Q O *D sky130_fd_sc_hd__dfrtp_1
*CAP
1 *9790:A 0
2 *9846:A 3.8912e-05
3 *9495:A1 0.000492095
4 *9666:Q 0.000310138
5 *842:14 0.000654666
6 *842:10 0.000433796
7 *9493:B2 *9495:A1 4.9585e-05
8 *9494:A1 *9495:A1 2.89016e-05
9 *9494:A1 *9846:A 5.33433e-05
10 *9494:A1 *842:14 0.000175519
11 *9494:B1 *9846:A 0
12 *9494:B2 *842:14 0
13 *9495:B2 *9495:A1 6.96878e-05
14 *9520:A *9495:A1 5.52302e-05
15 *9666:D *842:10 0
16 *9680:RESET_B *842:10 9.62151e-05
17 *9789:A *9495:A1 7.28784e-05
18 *9803:A *9495:A1 0.000100835
19 *442:102 *9495:A1 7.83366e-05
20 *540:171 *9495:A1 5.52302e-05
21 *540:288 *9495:A1 0.000396898
22 *540:288 *9846:A 8.76257e-05
23 *541:218 *9495:A1 5.33005e-05
24 *541:322 *842:14 0
25 *589:72 *842:10 4.35436e-05
26 *635:19 *9495:A1 7.19508e-05
27 *746:118 *842:14 1.78447e-05
28 *789:16 *9495:A1 6.92626e-05
29 *841:10 *842:10 0.00014279
30 *841:10 *842:14 1.02504e-05
*RES
1 *9666:Q *842:10 18.7464 
2 *842:10 *842:14 7.35714 
3 *842:14 *9495:A1 29.9607 
4 *842:14 *9846:A 10.675 
5 *842:10 *9790:A 13.8 
*END

*D_NET *843 0.000995666
*CONN
*I *9787:A I *D sky130_fd_sc_hd__dlygate4sd3_1
*I *9667:Q O *D sky130_fd_sc_hd__dfrtp_1
*CAP
1 *9787:A 0.000244487
2 *9667:Q 0.000244487
3 *9668:D *9787:A 6.95019e-05
4 *442:102 *9787:A 1.24469e-05
5 *442:104 *9787:A 0.000104034
6 *442:106 *9787:A 0.000293422
7 *589:35 *9787:A 2.72859e-05
*RES
1 *9667:Q *9787:A 33.8321 
*END

*D_NET *844 0.00643196
*CONN
*I *9840:A I *D sky130_fd_sc_hd__dlygate4sd3_1
*I *9497:A1 I *D sky130_fd_sc_hd__a22o_1
*I *9800:A I *D sky130_fd_sc_hd__dlygate4sd3_1
*I *9668:Q O *D sky130_fd_sc_hd__dfrtp_1
*CAP
1 *9840:A 0
2 *9497:A1 0.00149528
3 *9800:A 0.000101326
4 *9668:Q 0.000386305
5 *844:29 0.00182969
6 *844:10 0.00082204
7 *9497:A1 *9771:A 5.35595e-05
8 *1132:DIODE *9497:A1 2.97021e-05
9 *1133:DIODE *9497:A1 6.10501e-05
10 *9489:A1 *9497:A1 0.000491107
11 *9489:A1 *844:29 0
12 *9497:B2 *9497:A1 5.55288e-05
13 *9526:A *9497:A1 3.19626e-05
14 *9537:S *9800:A 4.1331e-06
15 *9684:D *9497:A1 0.000349406
16 *9690:D *844:10 0
17 *9690:D *844:29 0.000127603
18 *9690:RESET_B *9497:A1 0.00023366
19 *9690:RESET_B *844:29 0.000114096
20 *373:12 *9800:A 0
21 *373:12 *844:10 0
22 *743:145 *9497:A1 2.89016e-05
23 *794:8 *9497:A1 5.52238e-05
24 *835:28 *9497:A1 2.14757e-05
25 *835:28 *844:29 0.0001399
*RES
1 *9668:Q *844:10 18.9429 
2 *844:10 *9800:A 15.4429 
3 *844:10 *844:29 10.9464 
4 *844:29 *9497:A1 34.9786 
5 *844:29 *9840:A 9.3 
*END

*D_NET *845 0.00211217
*CONN
*I *9834:A I *D sky130_fd_sc_hd__dlygate4sd3_1
*I *9771:A I *D sky130_fd_sc_hd__dlygate4sd3_1
*I *9669:Q O *D sky130_fd_sc_hd__dfrtp_1
*CAP
1 *9834:A 6.89418e-05
2 *9771:A 0.000577073
3 *9669:Q 0.000135923
4 *845:8 0.000781937
5 *9497:A1 *9771:A 5.35595e-05
6 *9526:A *9771:A 1.02504e-05
7 *9684:D *9771:A 4.35452e-05
8 *540:67 *9834:A 0
9 *540:67 *845:8 0
10 *598:82 *9771:A 2.59355e-05
11 *598:86 *9771:A 5.66157e-05
12 *740:139 *9834:A 0.000125724
13 *740:139 *845:8 4.80729e-05
14 *740:143 *845:8 0.000149911
15 *743:110 *9771:A 2.15363e-05
16 *757:18 *9771:A 1.3142e-05
*RES
1 *9669:Q *845:8 16.3536 
2 *845:8 *9771:A 30.1214 
3 *845:8 *9834:A 15.4429 
*END

*D_NET *846 0.00213389
*CONN
*I *9841:A I *D sky130_fd_sc_hd__dlygate4sd3_1
*I *9786:A I *D sky130_fd_sc_hd__dlygate4sd3_1
*I *9499:A1 I *D sky130_fd_sc_hd__a22o_1
*I *9670:Q O *D sky130_fd_sc_hd__dfrtp_1
*CAP
1 *9841:A 8.67706e-05
2 *9786:A 0
3 *9499:A1 0.000175065
4 *9670:Q 0.000135322
5 *846:12 0.000397158
6 *9075:A *9499:A1 0.000449546
7 *9075:A *9841:A 0.000342694
8 *9498:B2 *9499:A1 0
9 *9683:RESET_B *846:12 1.07719e-05
10 *348:125 *9499:A1 0.000172745
11 *348:125 *9841:A 0.000127267
12 *540:31 *9499:A1 1.76039e-05
13 *540:52 *9499:A1 3.92854e-05
14 *540:67 *9499:A1 3.07555e-05
15 *794:12 *846:12 0.000148903
*RES
1 *9670:Q *846:12 20.7821 
2 *846:12 *9499:A1 24.4786 
3 *846:12 *9786:A 9.3 
4 *846:12 *9841:A 12.7107 
*END

*D_NET *847 0.0045744
*CONN
*I *9568:A0 I *D sky130_fd_sc_hd__mux2_1
*I *9804:A I *D sky130_fd_sc_hd__dlygate4sd3_1
*I *9470:A1 I *D sky130_fd_sc_hd__a22o_1
*I *9643:Q O *D sky130_fd_sc_hd__dfrtp_1
*CAP
1 *9568:A0 0.000566358
2 *9804:A 5.80705e-05
3 *9470:A1 0.000805119
4 *9643:Q 0
5 *847:6 0.00108576
6 *847:4 0.00078893
7 *9470:A2 *9470:A1 5.71472e-05
8 *9568:S *9568:A0 0.000122047
9 *9643:D *9470:A1 0.000101464
10 *566:176 *9568:A0 0.00013949
11 *566:183 *9568:A0 0.000104611
12 *723:8 *9804:A 7.6644e-05
13 *739:30 *9470:A1 0.00052935
14 *739:78 *9804:A 6.10501e-05
15 *815:10 *9804:A 7.83587e-05
*RES
1 *9643:Q *847:4 9.3 
2 *847:4 *847:6 2.58929 
3 *847:6 *9470:A1 22.3 
4 *847:6 *9804:A 20.0679 
5 *847:4 *9568:A0 20.1214 
*END

*D_NET *848 0.00116285
*CONN
*I *9756:A I *D sky130_fd_sc_hd__dlygate4sd3_1
*I *9671:Q O *D sky130_fd_sc_hd__dfrtp_1
*CAP
1 *9756:A 0.000349993
2 *9671:Q 0.000349993
3 *9075:B *9756:A 0.000271345
4 *9671:RESET_B *9756:A 6.57914e-05
5 *598:10 *9756:A 0.000125724
6 *740:115 *9756:A 0
*RES
1 *9671:Q *9756:A 33.0643 
*END

*D_NET *849 0.00534572
*CONN
*I *9570:A0 I *D sky130_fd_sc_hd__mux2_1
*I *9795:A I *D sky130_fd_sc_hd__dlygate4sd3_1
*I *9471:A1 I *D sky130_fd_sc_hd__a22o_1
*I *9644:Q O *D sky130_fd_sc_hd__dfrtp_1
*CAP
1 *9570:A0 0.00106325
2 *9795:A 0.000204456
3 *9471:A1 0.000429575
4 *9644:Q 0
5 *849:35 0.00151489
6 *849:4 0.00067676
7 *9471:A1 *9473:A1 0.000161392
8 *9471:A1 *9842:A 5.52302e-05
9 *9471:A1 *851:27 5.33005e-05
10 *9570:A0 *9842:A 0.000131326
11 *849:35 *9842:A 4.78057e-05
12 *9470:B1 *9471:A1 3.18676e-05
13 *9470:B2 *9471:A1 5.9483e-05
14 *9471:B2 *9471:A1 3.57366e-05
15 *9472:A1 *9471:A1 5.62995e-05
16 *9472:B2 *9471:A1 0
17 *9571:A *9570:A0 7.52646e-06
18 *9574:A0 *9570:A0 0.000225609
19 *9643:D *9570:A0 0.000227526
20 *9644:RESET_B *849:35 6.49613e-05
21 *9707:CLK *9570:A0 5.33433e-05
22 *9707:D *9570:A0 6.25544e-05
23 *9707:D *9795:A 0
24 *537:138 *9471:A1 1.3701e-05
25 *539:193 *9471:A1 3.18676e-05
26 *593:22 *849:35 0.000101545
27 *704:8 *849:35 3.5707e-05
*RES
1 *9644:Q *849:4 9.3 
2 *849:4 *9471:A1 27.4429 
3 *849:4 *849:35 12.9286 
4 *849:35 *9795:A 12.6214 
5 *849:35 *9570:A0 24.3536 
*END

*D_NET *850 0.00036304
*CONN
*I *9775:A I *D sky130_fd_sc_hd__clkdlybuf4s25_1
*I *9645:Q O *D sky130_fd_sc_hd__dfrtp_1
*CAP
1 *9775:A 9.65931e-05
2 *9645:Q 9.65931e-05
3 *9572:A0 *9775:A 7.83659e-05
4 *593:12 *9775:A 2.49484e-05
5 *704:8 *9775:A 6.65398e-05
*RES
1 *9645:Q *9775:A 29.7786 
*END

*D_NET *851 0.00653549
*CONN
*I *9842:A I *D sky130_fd_sc_hd__dlygate4sd3_1
*I *9794:A I *D sky130_fd_sc_hd__dlygate4sd3_1
*I *9473:A1 I *D sky130_fd_sc_hd__a22o_1
*I *9646:Q O *D sky130_fd_sc_hd__dfrtp_1
*CAP
1 *9842:A 0.00103721
2 *9794:A 0.000331092
3 *9473:A1 0.000913644
4 *9646:Q 0
5 *851:27 0.00139246
6 *851:4 0.0009378
7 *1088:DIODE *9473:A1 0
8 *9471:A1 *9473:A1 0.000161392
9 *9471:A1 *9842:A 5.52302e-05
10 *9471:A1 *851:27 5.33005e-05
11 *9472:A1 *9473:A1 1.02504e-05
12 *9472:B2 *9473:A1 0
13 *9473:A2 *9473:A1 0.000318101
14 *9570:A0 *9842:A 0.000131326
15 *9643:D *9842:A 0.000148903
16 *9644:RESET_B *9794:A 1.52978e-05
17 *9644:RESET_B *9842:A 0.00013029
18 *9646:D *9473:A1 9.32691e-05
19 *9707:D *9842:A 6.05161e-06
20 *9774:A *9473:A1 0.000175158
21 *9805:A *9794:A 6.07626e-05
22 *537:138 *9473:A1 1.73305e-05
23 *537:140 *9473:A1 0.000186669
24 *539:131 *9473:A1 2.44318e-05
25 *593:12 *9842:A 0
26 *593:22 *9842:A 8.90199e-05
27 *623:14 *9794:A 0.000198698
28 *704:8 *9842:A 0
29 *849:35 *9842:A 4.78057e-05
*RES
1 *9646:Q *851:4 9.3 
2 *851:4 *9473:A1 33.8 
3 *851:4 *851:27 0.535714 
4 *851:27 *9794:A 24.2643 
5 *851:27 *9842:A 35.3179 
*END

*D_NET *852 0.00155091
*CONN
*I *9773:A I *D sky130_fd_sc_hd__dlygate4sd3_1
*I *9647:Q O *D sky130_fd_sc_hd__dfrtp_1
*CAP
1 *9773:A 0.000661196
2 *9647:Q 0.000661196
3 *9473:B2 *9773:A 0
4 *539:124 *9773:A 2.82057e-05
5 *621:10 *9773:A 0.000200317
*RES
1 *9647:Q *9773:A 37.7071 
*END

*D_NET *853 0.00118588
*CONN
*I *9830:A I *D sky130_fd_sc_hd__dlygate4sd3_1
*I *9769:A I *D sky130_fd_sc_hd__dlygate4sd3_1
*I *9648:Q O *D sky130_fd_sc_hd__dfrtp_1
*CAP
1 *9830:A 0.000114944
2 *9769:A 0.000241209
3 *9648:Q 0
4 *853:4 0.000356152
5 *9546:A0 *9830:A 2.89114e-05
6 *9645:CLK *9769:A 4.88637e-05
7 *9776:A *9769:A 0.000188586
8 *594:25 *9769:A 0
9 *738:28 *9830:A 0.000175502
10 *738:61 *9769:A 3.17163e-05
*RES
1 *9648:Q *853:4 9.3 
2 *853:4 *9769:A 23.4429 
3 *853:4 *9830:A 12.3 
*END

*D_NET *854 0.00251199
*CONN
*I *9783:A I *D sky130_fd_sc_hd__dlygate4sd3_1
*I *9844:A I *D sky130_fd_sc_hd__dlygate4sd3_1
*I *9475:B2 I *D sky130_fd_sc_hd__a22o_1
*I *9649:Q O *D sky130_fd_sc_hd__dfrtp_1
*CAP
1 *9783:A 0.000288518
2 *9844:A 0
3 *9475:B2 2.70302e-05
4 *9649:Q 0.000263586
5 *854:21 0.000515145
6 *854:12 0.000517243
7 *9783:A *863:28 0.000117082
8 *1094:DIODE *854:12 5.33334e-05
9 *1094:DIODE *854:21 6.05161e-06
10 *9475:A1 *854:21 7.65804e-05
11 *9475:A2 *854:21 0.000144773
12 *9694:D *9783:A 3.57366e-05
13 *9770:A *9783:A 0.00010986
14 *9770:A *854:21 0.000357048
15 *537:63 *854:12 0
16 *537:65 *854:12 0
17 *539:246 *9783:A 0
18 *738:109 *9783:A 0
*RES
1 *9649:Q *854:12 22.9429 
2 *854:12 *9475:B2 9.72857 
3 *854:12 *854:21 5.875 
4 *854:21 *9844:A 9.3 
5 *854:21 *9783:A 24.4607 
*END

*D_NET *855 0.00597944
*CONN
*I *9550:A0 I *D sky130_fd_sc_hd__mux2_1
*I *9801:A I *D sky130_fd_sc_hd__dlygate4sd3_1
*I *9476:B2 I *D sky130_fd_sc_hd__a22o_1
*I *9650:Q O *D sky130_fd_sc_hd__dfrtp_1
*CAP
1 *9550:A0 0.000164211
2 *9801:A 0.000257986
3 *9476:B2 0.00104162
4 *9650:Q 0
5 *855:25 0.000944212
6 *855:4 0.00156364
7 *9476:B2 *894:22 0.000186047
8 *1095:DIODE *9476:B2 5.52302e-05
9 *9217:A *9550:A0 4.1331e-06
10 *9549:A *9476:B2 2.15363e-05
11 *9551:A *9801:A 5.71472e-05
12 *9650:CLK *855:25 0.000252102
13 *9695:CLK *9476:B2 7.02611e-05
14 *9695:D *9476:B2 3.06878e-06
15 *166:18 *9801:A 0.000125057
16 *369:248 *9550:A0 0
17 *537:50 *9476:B2 0
18 *585:16 *9476:B2 2.59355e-05
19 *585:16 *855:25 0.000108535
20 *585:18 *9476:B2 0.000447546
21 *732:62 *9476:B2 0.000121926
22 *738:109 *9550:A0 8.5662e-05
23 *738:109 *9801:A 0.000124422
24 *738:132 *9550:A0 5.01213e-05
25 *755:14 *9476:B2 0.000269046
*RES
1 *9650:Q *855:4 9.3 
2 *855:4 *9476:B2 34.8357 
3 *855:4 *855:25 11.1964 
4 *855:25 *9801:A 19.5679 
5 *855:25 *9550:A0 17.2643 
*END

*D_NET *856 0.00922477
*CONN
*I *9186:B1 I *D sky130_fd_sc_hd__a32o_1
*I *9124:A I *D sky130_fd_sc_hd__xnor2_1
*I *9562:A1 I *D sky130_fd_sc_hd__mux2_1
*I *9702:Q O *D sky130_fd_sc_hd__dfrtp_2
*CAP
1 *9186:B1 0.00256941
2 *9124:A 0
3 *9562:A1 0.000195077
4 *9702:Q 0
5 *856:23 0.00344711
6 *856:4 0.00107278
7 *9186:B1 *894:22 0.000539032
8 *9118:A2 *9186:B1 0.00010326
9 *9124:B *9186:B1 4.18895e-05
10 *9124:B *856:23 5.71472e-05
11 *9126:B *9186:B1 2.69397e-05
12 *9181:C1 *9186:B1 2.72173e-05
13 *9186:A1 *9186:B1 6.42338e-05
14 *9199:C1 *9186:B1 7.49152e-05
15 *9247:A *856:23 0.00040765
16 *9702:RESET_B *9562:A1 0.000142856
17 *9702:RESET_B *856:23 0.000129515
18 *286:10 *9186:B1 5.27703e-06
19 *344:152 *9186:B1 0
20 *377:16 *9186:B1 0
21 *619:127 *9186:B1 1.96517e-05
22 *704:8 *9562:A1 0
23 *739:167 *856:23 7.03295e-05
24 *739:176 *856:23 0.000230482
25 *743:96 *9186:B1 0
26 *817:23 *9562:A1 0
*RES
1 *9702:Q *856:4 9.3 
2 *856:4 *9562:A1 21.9071 
3 *856:4 *856:23 17.5179 
4 *856:23 *9124:A 9.3 
5 *856:23 *9186:B1 36.6485 
*END

*D_NET *857 0.00853297
*CONN
*I *9192:A1 I *D sky130_fd_sc_hd__a22o_1
*I *9112:A I *D sky130_fd_sc_hd__inv_2
*I *9564:A1 I *D sky130_fd_sc_hd__mux2_1
*I *9703:Q O *D sky130_fd_sc_hd__dfrtp_1
*CAP
1 *9192:A1 0.000307941
2 *9112:A 0.000138871
3 *9564:A1 0.000458853
4 *9703:Q 0
5 *857:35 0.00115542
6 *857:4 0.00116746
7 *9112:A *858:21 5.66157e-05
8 *9112:A *859:31 0
9 *9192:A1 *9198:A1 0.000263842
10 *857:35 *9111:A 4.58976e-05
11 *857:35 *9198:A1 1.98839e-05
12 *9111:B *857:35 9.90367e-05
13 *9192:A2 *9192:A1 5.7661e-06
14 *9192:B1 *9192:A1 2.73185e-05
15 *9209:A2 *857:35 0.000286093
16 *9210:B1 *857:35 2.99134e-05
17 *9468:A1 *9564:A1 0.000139907
18 *9564:A0 *9564:A1 0.000272371
19 *9703:RESET_B *857:35 0.00036192
20 *260:18 *9112:A 8.34946e-05
21 *260:18 *857:35 0.000171283
22 *270:14 *9112:A 8.09146e-06
23 *337:32 *9192:A1 0.000987013
24 *337:32 *857:35 0.00142489
25 *337:34 *857:35 0.000169359
26 *337:46 *857:35 0.000363837
27 *344:53 *9192:A1 9.41888e-05
28 *344:152 *857:35 9.77274e-05
29 *539:270 *9564:A1 0
30 *566:234 *9564:A1 0.000146629
31 *739:153 *857:35 9.90367e-05
32 *743:96 *857:35 1.05524e-05
33 *794:22 *857:35 3.97657e-05
*RES
1 *9703:Q *857:4 9.3 
2 *857:4 *9564:A1 25.8893 
3 *857:4 *857:35 32.25 
4 *857:35 *9112:A 21.1571 
5 *857:35 *9192:A1 20.55 
*END

*D_NET *858 0.00776027
*CONN
*I *9198:A1 I *D sky130_fd_sc_hd__a22o_1
*I *9111:A I *D sky130_fd_sc_hd__xnor2_1
*I *9566:A1 I *D sky130_fd_sc_hd__mux2_1
*I *9704:Q O *D sky130_fd_sc_hd__dfrtp_1
*CAP
1 *9198:A1 0.00127869
2 *9111:A 0.000156439
3 *9566:A1 0.000782244
4 *9704:Q 0
5 *858:21 0.00192237
6 *858:4 0.00126949
7 *858:21 *859:31 0
8 *9111:B *9111:A 9.90367e-05
9 *9112:A *858:21 5.66157e-05
10 *9128:B *858:21 0
11 *9192:A1 *9198:A1 0.000263842
12 *9192:A2 *9198:A1 0.000563675
13 *9192:B1 *9198:A1 5.52302e-05
14 *9566:A0 *9566:A1 5.71472e-05
15 *9567:A *9566:A1 5.71472e-05
16 *9704:D *9566:A1 5.52302e-05
17 *9704:RESET_B *858:21 0
18 *9705:RESET_B *858:21 6.35798e-05
19 *260:18 *9111:A 0.000181796
20 *260:18 *858:21 3.17148e-05
21 *291:8 *858:21 0
22 *344:53 *9198:A1 0.000267731
23 *344:320 *9198:A1 0.000102056
24 *348:240 *9566:A1 2.27416e-05
25 *348:240 *858:21 0.000101545
26 *593:67 *9566:A1 0.000274288
27 *698:18 *858:21 0
28 *732:44 *9198:A1 3.18703e-05
29 *857:35 *9111:A 4.58976e-05
30 *857:35 *9198:A1 1.98839e-05
*RES
1 *9704:Q *858:4 9.3 
2 *858:4 *9566:A1 20.2464 
3 *858:4 *858:21 18.2321 
4 *858:21 *9111:A 12.7107 
5 *858:21 *9198:A1 37.05 
*END

*D_NET *859 0.00683744
*CONN
*I *9202:A1 I *D sky130_fd_sc_hd__a22o_1
*I *9098:A I *D sky130_fd_sc_hd__xor2_1
*I *9568:A1 I *D sky130_fd_sc_hd__mux2_1
*I *9705:Q O *D sky130_fd_sc_hd__dfrtp_1
*CAP
1 *9202:A1 0.000449288
2 *9098:A 0.000224311
3 *9568:A1 0.000645471
4 *9705:Q 0.000221573
5 *859:31 0.0016243
6 *859:12 0.00181775
7 *9568:A1 *862:12 7.92879e-05
8 *9568:A1 *862:27 1.78447e-05
9 *859:12 *862:27 6.32132e-05
10 *859:31 *9119:A 0
11 *859:31 *862:27 0.000154229
12 *9099:B *9098:A 5.52302e-05
13 *9107:A *9098:A 5.03772e-05
14 *9107:A *9202:A1 2.28598e-05
15 *9107:A *859:31 2.47627e-05
16 *9107:B *9202:A1 0.000144773
17 *9112:A *859:31 0
18 *9120:S *9098:A 3.51368e-05
19 *9129:A *859:31 6.12326e-06
20 *9133:A *9098:A 1.33343e-05
21 *9202:B1 *9202:A1 0.000102096
22 *9206:B2 *9568:A1 0
23 *9207:B *859:31 0.00032246
24 *9228:B *9098:A 5.91336e-05
25 *9228:B *9202:A1 1.21289e-05
26 *9568:S *9568:A1 3.18676e-05
27 *270:8 *859:31 3.50155e-05
28 *270:14 *859:31 0
29 *369:280 *9202:A1 0.000245947
30 *376:16 *9098:A 1.71947e-05
31 *698:18 *9568:A1 0.000125363
32 *698:18 *859:31 0.000158752
33 *795:60 *9202:A1 7.76152e-05
34 *795:60 *859:31 0
35 *858:21 *859:31 0
*RES
1 *9705:Q *859:12 16.7911 
2 *859:12 *9568:A1 26.5411 
3 *859:12 *859:31 24.2589 
4 *859:31 *9098:A 13.4429 
5 *859:31 *9202:A1 27.9071 
*END

*D_NET *860 0.00500834
*CONN
*I *9206:A1 I *D sky130_fd_sc_hd__a221o_1
*I *9128:A I *D sky130_fd_sc_hd__xnor2_1
*I *9570:A1 I *D sky130_fd_sc_hd__mux2_1
*I *9706:Q O *D sky130_fd_sc_hd__dfrtp_1
*CAP
1 *9206:A1 0.000365537
2 *9128:A 2.23854e-05
3 *9570:A1 0.000416532
4 *9706:Q 0.000225468
5 *860:25 0.00096146
6 *860:8 0.00121554
7 *9206:A1 *9210:A1 0.000821686
8 *9206:A1 *862:27 0.000123288
9 *860:25 *9210:A1 0.000274294
10 *9128:B *9206:A1 3.18676e-05
11 *9567:A *860:25 0
12 *9569:A *860:8 0.000114092
13 *9574:S *9570:A1 0.00023978
14 *9704:D *860:25 0
15 *9704:RESET_B *860:25 6.95205e-05
16 *9705:D *9570:A1 9.90367e-05
17 *9708:D *860:8 0
18 *9708:D *860:25 0
19 *344:19 *9206:A1 0
20 *344:36 *9206:A1 0
21 *566:208 *9570:A1 2.78584e-05
22 *593:71 *860:8 0
23 *593:71 *860:25 0
*RES
1 *9706:Q *860:8 17.5679 
2 *860:8 *9570:A1 19.9964 
3 *860:8 *860:25 15.7143 
4 *860:25 *9128:A 9.72857 
5 *860:25 *9206:A1 27.8714 
*END

*D_NET *861 0.00422096
*CONN
*I *9109:A I *D sky130_fd_sc_hd__xnor2_1
*I *9209:A1 I *D sky130_fd_sc_hd__a22o_1
*I *9572:A1 I *D sky130_fd_sc_hd__mux2_1
*I *9707:Q O *D sky130_fd_sc_hd__dfrtp_1
*CAP
1 *9109:A 0.000173072
2 *9209:A1 3.90364e-05
3 *9572:A1 0.000491879
4 *9707:Q 5.77163e-05
5 *861:19 0.000564196
6 *861:8 0.000901683
7 *9209:B2 *9209:A1 0.00023702
8 *9566:A0 *9572:A1 9.47028e-05
9 *9572:S *9572:A1 1.92905e-05
10 *337:32 *9209:A1 3.18676e-05
11 *337:34 *9209:A1 4.72917e-05
12 *337:46 *9109:A 0
13 *337:46 *861:19 0
14 *723:8 *861:8 0.000104974
15 *739:92 *861:8 5.08481e-05
16 *739:92 *861:19 7.91281e-05
17 *739:153 *861:19 0.000244088
18 *815:10 *9109:A 0.000148903
19 *815:10 *861:8 0.000200413
20 *815:10 *861:19 0.000734847
*RES
1 *9707:Q *861:8 16.3536 
2 *861:8 *9572:A1 19.675 
3 *861:8 *861:19 9.53571 
4 *861:19 *9209:A1 15.5679 
5 *861:19 *9109:A 17.1036 
*END

*D_NET *862 0.00511644
*CONN
*I *9119:A I *D sky130_fd_sc_hd__xnor2_1
*I *9213:A1 I *D sky130_fd_sc_hd__a22o_1
*I *9574:A1 I *D sky130_fd_sc_hd__mux2_1
*I *9708:Q O *D sky130_fd_sc_hd__dfrtp_1
*CAP
1 *9119:A 0.000270287
2 *9213:A1 8.02211e-05
3 *9574:A1 0.000315062
4 *9708:Q 9.72011e-05
5 *862:27 0.000902638
6 *862:12 0.000964393
7 *9213:A1 *9210:A1 0.000188586
8 *9206:A1 *862:27 0.000123288
9 *9206:B2 *862:27 0.000189674
10 *9207:B *862:27 0.000173799
11 *9213:B1 *9213:A1 3.58638e-05
12 *9568:A1 *862:12 7.92879e-05
13 *9568:A1 *862:27 1.78447e-05
14 *9705:CLK *9574:A1 0.000149489
15 *9705:D *9574:A1 0.000341518
16 *335:40 *862:27 0.000200406
17 *344:19 *862:27 0
18 *344:36 *862:27 0
19 *698:18 *862:12 0.000153047
20 *795:60 *9119:A 0.000527801
21 *795:60 *9213:A1 8.85927e-05
22 *859:12 *862:27 6.32132e-05
23 *859:31 *9119:A 0
24 *859:31 *862:27 0.000154229
*RES
1 *9708:Q *862:12 20.7821 
2 *862:12 *9574:A1 16.4071 
3 *862:12 *862:27 18.1161 
4 *862:27 *9213:A1 17.0768 
5 *862:27 *9119:A 20.5589 
*END

*D_NET *863 0.0199858
*CONN
*I *9116:A I *D sky130_fd_sc_hd__xor2_1
*I *907:DIODE I *D sky130_fd_sc_hd__diode_2
*I *9218:A1 I *D sky130_fd_sc_hd__a22o_1
*I *963:DIODE I *D sky130_fd_sc_hd__diode_2
*I *1172:DIODE I *D sky130_fd_sc_hd__diode_2
*I *9576:A1 I *D sky130_fd_sc_hd__mux2_1
*I *9709:Q O *D sky130_fd_sc_hd__dfrtp_2
*CAP
1 *9116:A 7.94342e-05
2 *907:DIODE 5.81326e-05
3 *9218:A1 0
4 *963:DIODE 5.71075e-05
5 *1172:DIODE 0
6 *9576:A1 0.000120258
7 *9709:Q 0
8 *863:90 0.000294759
9 *863:88 0.00212528
10 *863:54 0.000682272
11 *863:44 0.00192851
12 *863:28 0.00401354
13 *863:10 0.000209044
14 *863:6 0.000830899
15 *863:88 *895:120 0.000101601
16 *1160:DIODE *863:44 0
17 *9082:A *863:88 0.000540736
18 *9088:A *9116:A 0.00014183
19 *9141:A *863:44 7.85435e-05
20 *9145:B1 *863:44 1.5942e-05
21 *9145:B2 *863:44 0.000148189
22 *9149:A1 *863:44 2.72449e-05
23 *9218:A2 *963:DIODE 4.18895e-05
24 *9218:B2 *863:54 0.000190631
25 *9230:B2 *963:DIODE 0.00014285
26 *9233:A1 *863:44 0.000528946
27 *9233:A1 *863:54 0.00029823
28 *9239:A1 *863:44 0.00035252
29 *9316:A *863:54 0
30 *9448:A0 *863:44 8.83783e-05
31 *9474:A1 *863:10 0.000106542
32 *9474:A1 *863:28 7.48356e-05
33 *9477:B2 *863:44 0
34 *9504:A3 *863:54 0.000199698
35 *9513:A1 *863:54 6.58195e-05
36 *9547:A *863:28 6.97972e-05
37 *9552:A0 *863:44 0
38 *9554:A0 *863:44 7.83659e-05
39 *9576:A0 *9576:A1 0.000183713
40 *9576:S *9576:A1 9.60771e-05
41 *9632:RESET_B *863:44 6.24997e-05
42 *9647:RESET_B *863:10 0.00010326
43 *9648:D *863:10 1.02504e-05
44 *9648:D *863:28 8.00806e-05
45 *9674:D *863:54 0.000125724
46 *9699:D *863:88 0.000179739
47 *9699:RESET_B *863:88 4.30382e-05
48 *9759:A *863:28 0
49 *9783:A *863:28 0.000117082
50 *271:8 *907:DIODE 7.99046e-05
51 *277:8 *907:DIODE 4.89264e-05
52 *337:325 *963:DIODE 1.04232e-05
53 *337:325 *863:54 0.000177705
54 *344:239 *863:54 0
55 *369:10 *863:44 1.98839e-05
56 *369:10 *863:88 0.000131395
57 *369:138 *963:DIODE 0.00010096
58 *381:8 *963:DIODE 1.5424e-05
59 *381:8 *863:54 0.000115013
60 *537:28 *863:44 0
61 *537:34 *863:44 0.000142082
62 *537:40 *863:44 0.000170503
63 *539:72 *863:88 0.000303747
64 *539:76 *863:88 0.000142856
65 *539:80 *863:28 3.06466e-05
66 *539:82 *863:28 0.000887122
67 *539:84 *863:28 0.000196269
68 *539:90 *863:28 0.000363252
69 *539:116 *863:28 1.18358e-05
70 *539:310 *863:44 0.000139907
71 *566:86 *863:10 0
72 *566:86 *863:28 0
73 *584:199 *863:28 0.000100329
74 *584:201 *863:28 7.57869e-05
75 *584:215 *863:28 0.000174888
76 *592:8 *863:88 2.95642e-05
77 *592:14 *863:88 5.33005e-05
78 *592:20 *863:88 4.45768e-06
79 *592:55 *863:88 0.000151984
80 *596:8 *863:54 7.36311e-05
81 *596:45 *863:54 0.00017315
82 *607:12 *863:44 0.000194577
83 *621:10 *863:10 4.46186e-06
84 *738:132 *863:88 0
85 *739:221 *863:88 0.000203658
86 *739:333 *907:DIODE 5.55405e-05
87 *739:333 *863:88 7.49387e-06
88 *739:333 *863:90 0.000141965
89 *741:62 *863:44 6.82179e-05
90 *771:10 *863:44 0.000178847
91 *771:10 *863:88 0.000180777
92 *771:23 *863:44 0
93 *775:14 *863:28 0
94 *784:37 *863:54 0
95 *796:42 *863:54 5.74562e-05
96 *821:10 *863:44 7.38526e-05
97 *821:25 *863:44 0.000106758
98 *822:10 *863:88 1.55885e-05
99 *826:22 *863:28 7.83659e-05
*RES
1 *9709:Q *863:6 13.8 
2 *863:6 *863:10 7.05357 
3 *863:10 *9576:A1 12.3179 
4 *863:10 *1172:DIODE 9.3 
5 *863:6 *863:28 25.875 
6 *863:28 *863:44 40.9308 
7 *863:44 *863:54 20.0089 
8 *863:54 *963:DIODE 11.4964 
9 *863:54 *9218:A1 9.3 
10 *863:28 *863:88 49.2857 
11 *863:88 *863:90 3 
12 *863:90 *907:DIODE 20.2464 
13 *863:90 *9116:A 11.0679 
*END

*D_NET *864 0.00485928
*CONN
*I *9810:A I *D sky130_fd_sc_hd__dlygate4sd3_1
*I *9193:A1 I *D sky130_fd_sc_hd__a21o_1
*I *9173:A0 I *D sky130_fd_sc_hd__mux2_1
*I *9324:B_N I *D sky130_fd_sc_hd__nor2b_1
*I *9588:Q O *D sky130_fd_sc_hd__dfrtp_1
*CAP
1 *9810:A 2.23854e-05
2 *9193:A1 0.000548842
3 *9173:A0 0
4 *9324:B_N 0.000120397
5 *9588:Q 0.000296485
6 *864:30 0.000593613
7 *864:10 0.000369726
8 *864:6 0.0005682
9 *920:DIODE *9193:A1 0.00031588
10 *1046:DIODE *864:6 6.78055e-06
11 *1067:DIODE *864:10 0
12 *1238:DIODE *9324:B_N 6.8646e-06
13 *9183:C *9193:A1 7.71303e-05
14 *9196:A3 *9193:A1 0.000223558
15 *9324:A *9324:B_N 0.00010096
16 *9348:A *9324:B_N 0
17 *9348:A *864:10 0
18 *9349:C1 *864:10 0
19 *9439:A *9193:A1 0.000139907
20 *9439:A *9810:A 0
21 *9749:A *9324:B_N 5.52238e-05
22 *332:33 *9324:B_N 0.000103267
23 *335:22 *9193:A1 9.41642e-05
24 *335:32 *9193:A1 3.32731e-05
25 *342:16 *9193:A1 0.000181796
26 *377:16 *9193:A1 0.000433068
27 *601:14 *864:10 0
28 *602:21 *864:10 0
29 *709:61 *9193:A1 4.72818e-05
30 *709:71 *9193:A1 3.29753e-05
31 *720:30 *9193:A1 5.33005e-05
32 *720:49 *9193:A1 3.17148e-05
33 *749:12 *9324:B_N 0.000189866
34 *749:12 *864:10 0.000212627
*RES
1 *9588:Q *864:6 12.7107 
2 *864:6 *864:10 9.17857 
3 *864:10 *9324:B_N 17.2107 
4 *864:10 *9173:A0 13.8 
5 *864:6 *864:30 0.428571 
6 *864:30 *9193:A1 32.7821 
7 *864:30 *9810:A 9.72857 
*END

*D_NET *865 0.00264053
*CONN
*I *9164:B1 I *D sky130_fd_sc_hd__o21ai_1
*I *9187:B2 I *D sky130_fd_sc_hd__a221o_1
*I *9428:A1 I *D sky130_fd_sc_hd__mux2_1
*I *9622:Q O *D sky130_fd_sc_hd__dfrtp_1
*CAP
1 *9164:B1 0
2 *9187:B2 0.000160699
3 *9428:A1 0
4 *9622:Q 0.000323948
5 *865:25 0.000283592
6 *865:12 0.000446842
7 *9187:B2 *9166:A1 3.62855e-05
8 *9187:B2 *866:38 1.98839e-05
9 *865:12 *866:26 3.97677e-05
10 *865:25 *866:26 0.000201222
11 *865:25 *866:38 2.44318e-05
12 *9164:A1 *9187:B2 9.3111e-05
13 *9164:A1 *865:25 0.000102044
14 *9166:A2 *9187:B2 0.00022459
15 *9166:A2 *865:25 5.71472e-05
16 *9201:B *9187:B2 1.85392e-05
17 *9428:A0 *865:12 9.41642e-05
18 *9428:S *865:25 1.61893e-05
19 *9429:A *865:12 0.000126639
20 *369:290 *865:12 0.00022289
21 *369:290 *865:25 5.70351e-05
22 *584:61 *865:12 4.57538e-05
23 *731:83 *865:12 4.57538e-05
*RES
1 *9622:Q *865:12 26.6393 
2 *865:12 *9428:A1 9.3 
3 *865:12 *865:25 4.39286 
4 *865:25 *9187:B2 13.2688 
5 *865:25 *9164:B1 9.3 
*END

*D_NET *866 0.00714868
*CONN
*I *9430:A1 I *D sky130_fd_sc_hd__mux2_1
*I *9164:A2 I *D sky130_fd_sc_hd__o21ai_1
*I *9165:A1_N I *D sky130_fd_sc_hd__o2bb2a_1
*I *9195:B2 I *D sky130_fd_sc_hd__a221o_1
*I *9623:Q O *D sky130_fd_sc_hd__dfrtp_1
*CAP
1 *9430:A1 0
2 *9164:A2 0
3 *9165:A1_N 0
4 *9195:B2 0.000356268
5 *9623:Q 0.000474041
6 *866:38 0.000770494
7 *866:26 0.000858278
8 *866:14 0.000918093
9 *9195:B2 *9195:A1 2.50556e-05
10 *9195:B2 *9203:B2 5.33005e-05
11 *9195:B2 *873:28 0.000194479
12 *9195:B2 *899:28 6.26774e-06
13 *866:14 *9820:A 0
14 *1063:DIODE *866:14 0.000216062
15 *9166:A2 *866:38 0.000268403
16 *9166:B1 *9195:B2 6.79581e-05
17 *9166:B1 *866:38 7.95065e-05
18 *9167:B2 *866:26 0
19 *9168:A2 *866:38 8.6229e-06
20 *9168:C1 *866:14 0.000102207
21 *9168:C1 *866:26 6.0741e-05
22 *9187:B2 *866:38 1.98839e-05
23 *9187:C1 *866:38 0.000165032
24 *9195:B1 *9195:B2 6.26774e-06
25 *9195:C1 *9195:B2 9.25014e-06
26 *9200:A2 *9195:B2 5.27904e-05
27 *9428:A0 *866:26 7.90803e-05
28 *9430:A0 *866:26 9.90431e-05
29 *9430:S *866:14 3.3283e-05
30 *9430:S *866:26 0.000271345
31 *9434:S *9195:B2 0.000146992
32 *323:8 *866:38 0.000200978
33 *342:27 *9195:B2 6.05161e-06
34 *342:31 *9195:B2 1.18451e-05
35 *348:343 *866:38 1.95045e-05
36 *404:75 *9195:B2 0.000146474
37 *404:79 *9195:B2 0.000163961
38 *518:31 *9195:B2 9.65075e-05
39 *729:24 *9195:B2 0.000193505
40 *729:24 *866:38 6.89995e-05
41 *742:61 *866:26 4.84367e-05
42 *742:67 *866:26 2.83284e-06
43 *744:184 *866:26 0.000240008
44 *749:90 *866:14 0.000341413
45 *865:12 *866:26 3.97677e-05
46 *865:25 *866:26 0.000201222
47 *865:25 *866:38 2.44318e-05
*RES
1 *9623:Q *866:14 29.8 
2 *866:14 *866:26 18.5893 
3 *866:26 *866:38 16.4955 
4 *866:38 *9195:B2 28.7196 
5 *866:38 *9165:A1_N 9.3 
6 *866:26 *9164:A2 9.3 
7 *866:14 *9430:A1 9.3 
*END

*D_NET *867 0.00437729
*CONN
*I *9432:A1 I *D sky130_fd_sc_hd__mux2_1
*I *9162:A I *D sky130_fd_sc_hd__inv_2
*I *9197:A I *D sky130_fd_sc_hd__and2_1
*I *9624:Q O *D sky130_fd_sc_hd__dfrtp_1
*CAP
1 *9432:A1 0
2 *9162:A 0.000151908
3 *9197:A 0.00040725
4 *9624:Q 0.00085452
5 *867:35 0.000328744
6 *867:18 0.00143861
7 *9162:A *9169:B 0
8 *9197:A *899:28 9.47306e-05
9 *867:18 *899:28 0.000302161
10 *867:35 *9169:B 0
11 *911:DIODE *9197:A 4.70078e-05
12 *1239:DIODE *867:18 5.39629e-06
13 *9168:D1 *9162:A 0
14 *9431:A *867:18 1.99099e-05
15 *9431:A *867:35 0.000126439
16 *9433:A *867:35 3.69047e-06
17 *9624:CLK *867:18 1.3701e-05
18 *518:48 *9162:A 8.00806e-05
19 *616:96 *9197:A 0.000183726
20 *616:96 *867:18 0
21 *730:82 *9162:A 5.52302e-05
22 *744:167 *867:18 8.07951e-05
23 *751:52 *867:18 0
24 *751:67 *867:35 5.52302e-05
25 *751:71 *9162:A 0.000128161
*RES
1 *9624:Q *867:18 29.8893 
2 *867:18 *9197:A 15.0857 
3 *867:18 *867:35 12.4107 
4 *867:35 *9162:A 21.5143 
5 *867:35 *9432:A1 9.3 
*END

*D_NET *868 0.00194279
*CONN
*I *9161:A I *D sky130_fd_sc_hd__inv_2
*I *9434:A1 I *D sky130_fd_sc_hd__mux2_1
*I *9201:A I *D sky130_fd_sc_hd__and2_1
*I *9625:Q O *D sky130_fd_sc_hd__dfstp_1
*CAP
1 *9161:A 0.000212285
2 *9434:A1 0
3 *9201:A 8.04948e-05
4 *9625:Q 0
5 *868:14 0.00021163
6 *868:4 0.00034342
7 *937:DIODE *9161:A 8.66063e-05
8 *9190:A1 *9161:A 0.000160345
9 *9190:A1 *9201:A 0.00010096
10 *9190:A1 *868:14 7.41875e-05
11 *9190:B1 *9161:A 1.04232e-05
12 *9201:B *9201:A 0.000273269
13 *9434:S *868:14 1.97695e-05
14 *335:101 *868:14 2.56601e-05
15 *348:322 *9161:A 3.98431e-05
16 *348:331 *9161:A 7.66995e-05
17 *404:71 *868:14 0.000128154
18 *696:16 *9161:A 9.90431e-05
*RES
1 *9625:Q *868:4 9.3 
2 *868:4 *868:14 12.1161 
3 *868:14 *9201:A 11.8893 
4 *868:14 *9434:A1 9.3 
5 *868:4 *9161:A 14.2911 
*END

*D_NET *869 0.00239005
*CONN
*I *9587:D I *D sky130_fd_sc_hd__dfrtp_4
*I *9169:B I *D sky130_fd_sc_hd__and2_1
*I *9168:X O *D sky130_fd_sc_hd__o2111a_1
*CAP
1 *9587:D 0.00030423
2 *9169:B 0.000286573
3 *9168:X 0
4 *869:4 0.000590803
5 *9169:B *9167:A1 4.46186e-06
6 *9162:A *9169:B 0
7 *9168:B1 *9169:B 3.4323e-06
8 *9168:C1 *9169:B 4.02462e-05
9 *9587:RESET_B *9587:D 9.45352e-05
10 *324:12 *9587:D 5.52238e-05
11 *518:48 *9169:B 3.28804e-05
12 *616:20 *9169:B 0
13 *616:34 *9169:B 2.00751e-05
14 *616:96 *9169:B 1.68913e-05
15 *729:24 *9587:D 0.000360053
16 *730:82 *9587:D 0.000178847
17 *730:90 *9169:B 0.00022117
18 *744:169 *9587:D 6.09773e-05
19 *744:175 *9587:D 1.92905e-05
20 *751:52 *9169:B 0.000100356
21 *867:35 *9169:B 0
*RES
1 *9168:X *869:4 9.3 
2 *869:4 *9169:B 24.55 
3 *869:4 *9587:D 16.55 
*END

*D_NET *870 0.00615891
*CONN
*I *9187:A1 I *D sky130_fd_sc_hd__a221o_1
*I *9166:A1 I *D sky130_fd_sc_hd__o21a_1
*I *9351:B1_N I *D sky130_fd_sc_hd__a21boi_1
*I *9593:Q O *D sky130_fd_sc_hd__dfrtp_1
*CAP
1 *9187:A1 0
2 *9166:A1 0.000240549
3 *9351:B1_N 0.000266292
4 *9593:Q 1.26544e-05
5 *870:29 0.000968225
6 *870:6 0.00100662
7 *870:29 *9360:B1_N 3.45894e-05
8 *870:29 *871:10 0
9 *870:29 *873:20 0.001045
10 *9164:A1 *9166:A1 1.97695e-05
11 *9187:A2 *9166:A1 3.36823e-05
12 *9187:B2 *9166:A1 3.62855e-05
13 *9190:A2 *870:29 0.00010326
14 *9201:B *9166:A1 4.78624e-05
15 *9356:B2 *870:29 0.000314458
16 *9360:A1 *9351:B1_N 0.000192856
17 *9360:A2 *870:6 4.556e-05
18 *9360:A2 *870:29 7.61504e-05
19 *9362:B1 *870:29 4.87854e-05
20 *9434:S *870:29 5.41797e-06
21 *341:61 *870:29 0.000137424
22 *342:48 *9166:A1 5.33005e-05
23 *404:50 *870:29 1.08359e-05
24 *404:63 *870:29 0
25 *405:10 *870:29 0.00012401
26 *405:42 *9351:B1_N 0.000191984
27 *405:42 *870:29 0.000594125
28 *600:44 *870:29 7.12511e-05
29 *736:28 *870:29 0.000101545
30 *757:50 *9351:B1_N 0.000120148
31 *757:74 *870:29 4.32258e-05
32 *800:14 *9351:B1_N 1.78353e-05
33 *800:14 *870:29 0.000195201
*RES
1 *9593:Q *870:6 9.72857 
2 *870:6 *9351:B1_N 25.2821 
3 *870:6 *870:29 32.2321 
4 *870:29 *9166:A1 12.9429 
5 *870:29 *9187:A1 9.3 
*END

*D_NET *871 0.00485707
*CONN
*I *9163:A I *D sky130_fd_sc_hd__inv_2
*I *9195:A1 I *D sky130_fd_sc_hd__a221o_1
*I *9594:Q O *D sky130_fd_sc_hd__dfrtp_1
*CAP
1 *9163:A 0.000176659
2 *9195:A1 0.000559993
3 *9594:Q 0.000670088
4 *871:10 0.00140674
5 *912:DIODE *9195:A1 7.83659e-05
6 *9195:A2 *9195:A1 0
7 *9195:B2 *9195:A1 2.50556e-05
8 *9354:B1 *871:10 5.52302e-05
9 *9434:S *9195:A1 0.000128795
10 *9594:RESET_B *871:10 4.85567e-05
11 *341:53 *9195:A1 0
12 *341:61 *9195:A1 0.000360116
13 *341:61 *871:10 0.000261024
14 *347:103 *9163:A 0.000137437
15 *404:63 *871:10 5.75728e-05
16 *404:65 *871:10 7.62621e-05
17 *404:71 *9195:A1 0.000357755
18 *404:71 *871:10 5.96065e-05
19 *404:75 *9195:A1 6.9253e-05
20 *404:79 *9195:A1 0.000230878
21 *600:44 *871:10 6.84658e-05
22 *736:28 *871:10 2.34723e-05
23 *736:36 *871:10 5.74499e-06
24 *870:29 *871:10 0
*RES
1 *9594:Q *871:10 23.8357 
2 *871:10 *9195:A1 28.55 
3 *871:10 *9163:A 17.1214 
*END

*D_NET *872 0.00575938
*CONN
*I *9357:B1_N I *D sky130_fd_sc_hd__a21boi_1
*I *9167:B1 I *D sky130_fd_sc_hd__a221o_1
*I *9165:B2 I *D sky130_fd_sc_hd__o2bb2a_1
*I *9199:B2 I *D sky130_fd_sc_hd__a221o_1
*I *9595:Q O *D sky130_fd_sc_hd__dfrtp_1
*CAP
1 *9357:B1_N 0.000140339
2 *9167:B1 0
3 *9165:B2 0
4 *9199:B2 0.00067764
5 *9595:Q 0.000124055
6 *872:16 0.000903154
7 *872:10 0.000535797
8 *872:8 0.000574677
9 *872:16 *9167:A1 3.52899e-05
10 *923:DIODE *9199:B2 5.97719e-05
11 *9167:C1 *872:10 6.09572e-05
12 *9168:B1 *872:10 1.02481e-05
13 *9168:C1 *872:10 2.62714e-05
14 *9168:C1 *872:16 1.10866e-05
15 *9180:C *9199:B2 4.46186e-06
16 *9181:A1 *9199:B2 5.71472e-05
17 *9187:C1 *9199:B2 1.403e-05
18 *9354:A1 *9357:B1_N 0
19 *9428:S *872:10 3.06406e-05
20 *9595:RESET_B *9357:B1_N 7.18914e-05
21 *9595:RESET_B *872:10 0.000386575
22 *324:12 *872:16 5.41794e-05
23 *335:101 *9199:B2 7.08001e-05
24 *341:27 *9199:B2 1.21289e-05
25 *377:16 *9199:B2 0.000112438
26 *600:29 *872:8 3.06878e-06
27 *616:20 *9357:B1_N 0
28 *616:20 *872:10 0
29 *729:24 *9199:B2 0.000840795
30 *729:24 *872:16 0.000265453
31 *730:82 *9357:B1_N 6.26802e-05
32 *730:82 *872:10 0
33 *736:36 *9357:B1_N 0
34 *757:74 *9357:B1_N 0.000105208
35 *757:74 *872:8 2.22999e-05
36 *757:74 *872:10 0.000486297
*RES
1 *9595:Q *872:8 15.1571 
2 *872:8 *872:10 8.92857 
3 *872:10 *872:16 8.125 
4 *872:16 *9199:B2 32.3893 
5 *872:16 *9165:B2 9.3 
6 *872:10 *9167:B1 13.8 
7 *872:8 *9357:B1_N 16.9607 
*END

*D_NET *873 0.0111612
*CONN
*I *9360:B1_N I *D sky130_fd_sc_hd__a21boi_1
*I *9203:B2 I *D sky130_fd_sc_hd__a221o_1
*I *9167:A1 I *D sky130_fd_sc_hd__a221o_1
*I *9168:A1 I *D sky130_fd_sc_hd__o2111a_1
*I *9596:Q O *D sky130_fd_sc_hd__dfrtp_2
*CAP
1 *9360:B1_N 0.000456069
2 *9203:B2 0.000975668
3 *9167:A1 0.000251163
4 *9168:A1 1.24159e-05
5 *9596:Q 0.000112175
6 *873:28 0.000541227
7 *873:20 0.00210594
8 *873:10 0.00142087
9 *926:DIODE *9203:B2 0.00018372
10 *1065:DIODE *9203:B2 0.000311196
11 *1065:DIODE *873:20 6.78033e-05
12 *9086:A *873:10 3.14163e-05
13 *9167:C1 *9167:A1 0
14 *9168:A2 *9167:A1 5.71472e-05
15 *9168:A2 *873:28 1.33343e-05
16 *9168:B1 *9167:A1 0.000167871
17 *9168:C1 *9167:A1 1.74352e-05
18 *9168:D1 *9167:A1 0.000180309
19 *9168:D1 *9168:A1 5.7661e-06
20 *9168:D1 *873:28 2.28598e-05
21 *9169:B *9167:A1 4.46186e-06
22 *9186:A1 *873:28 2.40238e-05
23 *9195:B2 *9203:B2 5.33005e-05
24 *9195:B2 *873:28 0.000194479
25 *9203:B1 *9203:B2 5.07157e-05
26 *9354:B1 *873:20 0
27 *9355:A1 *9360:B1_N 2.78729e-05
28 *9356:B2 *873:20 0.000314458
29 *9360:A2 *9360:B1_N 0.000208666
30 *9362:B1 *9360:B1_N 3.54839e-05
31 *9427:A *9168:A1 0
32 *9427:A *873:28 3.17016e-05
33 *9434:S *873:20 5.68684e-06
34 *9434:S *873:28 9.21418e-06
35 *9435:A *9203:B2 0.000225616
36 *9625:D *9203:B2 0.000144773
37 *9866:A *9360:B1_N 5.80706e-06
38 *9866:A *873:20 7.71417e-05
39 *321:21 *9360:B1_N 0
40 *324:12 *9167:A1 2.28335e-05
41 *325:10 *873:20 0
42 *342:48 *873:20 7.87509e-05
43 *342:48 *873:28 7.50551e-05
44 *344:65 *9203:B2 0
45 *348:194 *9203:B2 0
46 *348:198 *9203:B2 0
47 *348:204 *9203:B2 2.40966e-05
48 *348:210 *9203:B2 3.71084e-05
49 *348:343 *873:20 0.000133491
50 *348:343 *873:28 9.41642e-05
51 *369:280 *9203:B2 0.000279141
52 *461:14 *873:20 0.000331316
53 *518:31 *873:28 0.000109195
54 *729:24 *9203:B2 0.000212591
55 *732:62 *9203:B2 2.84269e-05
56 *736:58 *873:20 0
57 *736:62 *873:20 0.000124947
58 *757:74 *873:20 2.09697e-05
59 *800:14 *9360:B1_N 0.000126439
60 *870:29 *9360:B1_N 3.45894e-05
61 *870:29 *873:20 0.001045
62 *872:16 *9167:A1 3.52899e-05
*RES
1 *9596:Q *873:10 15.2821 
2 *873:10 *873:20 22.0893 
3 *873:20 *873:28 10.375 
4 *873:28 *9168:A1 9.72857 
5 *873:28 *9167:A1 23.675 
6 *873:20 *9203:B2 42.3893 
7 *873:10 *9360:B1_N 22.1571 
*END

*D_NET *874 0.00141295
*CONN
*I *9817:A I *D sky130_fd_sc_hd__dlygate4sd3_1
*I *9586:Q O *D sky130_fd_sc_hd__dfrtp_1
*CAP
1 *9817:A 0.000242657
2 *9586:Q 0.000242657
3 *9173:S *9817:A 0.00027032
4 *9174:A *9817:A 3.18676e-05
5 *9338:B *9817:A 0.000443648
6 *9348:A *9817:A 0.000181796
7 *599:67 *9817:A 0
*RES
1 *9586:Q *9817:A 25.725 
*END

*D_NET *875 0.0015269
*CONN
*I *9365:A I *D sky130_fd_sc_hd__or2_1
*I *9364:A I *D sky130_fd_sc_hd__and2_1
*I *9278:B I *D sky130_fd_sc_hd__or4_1
*I *9606:Q O *D sky130_fd_sc_hd__dfrtp_1
*CAP
1 *9365:A 1.49752e-05
2 *9364:A 3.50795e-05
3 *9278:B 0.000101655
4 *9606:Q 3.86719e-05
5 *875:25 0.000121883
6 *875:8 0.000212156
7 *9278:B *9278:A 6.05161e-06
8 *9366:C_N *9278:B 3.57366e-05
9 *9368:B *875:8 0.000154762
10 *9368:B *875:25 2.48938e-05
11 *9369:B *9364:A 5.33005e-05
12 *9369:B *9365:A 5.33005e-05
13 *369:402 *875:8 0.000152333
14 *369:402 *875:25 0.000195555
15 *407:104 *9278:B 0
16 *408:10 *9278:B 1.65169e-05
17 *470:23 *9364:A 9.60875e-05
18 *470:23 *9365:A 4.08637e-05
19 *472:8 *875:25 0.000173083
*RES
1 *9606:Q *875:8 15.7464 
2 *875:8 *9278:B 15.6036 
3 *875:8 *875:25 7.05357 
4 *875:25 *9364:A 10.2464 
5 *875:25 *9365:A 9.83571 
*END

*D_NET *876 0.00249112
*CONN
*I *9405:A I *D sky130_fd_sc_hd__or2_1
*I *9404:A I *D sky130_fd_sc_hd__and2_1
*I *9281:B I *D sky130_fd_sc_hd__or3_1
*I *9616:Q O *D sky130_fd_sc_hd__dfrtp_1
*CAP
1 *9405:A 0.000153334
2 *9404:A 0.000184724
3 *9281:B 9.87712e-05
4 *9616:Q 9.70537e-05
5 *876:10 0.000423821
6 *876:8 0.000390713
7 *9281:B *9281:C 8.00806e-05
8 *9281:B *9282:A 0
9 *9281:B *9412:A 4.97121e-06
10 *9281:B *877:16 3.47737e-05
11 *9405:A *877:16 1.88048e-05
12 *876:10 *877:16 6.31653e-05
13 *9404:B *9404:A 4.22908e-05
14 *9407:A *9404:A 0
15 *9409:B *9281:B 5.24274e-05
16 *9409:B *9404:A 0.000146699
17 *9409:B *876:10 1.41029e-05
18 *9410:C_N *876:10 0
19 *9414:B *9281:B 3.34295e-05
20 *9616:RESET_B *9405:A 3.0525e-05
21 *9617:RESET_B *9405:A 0
22 *9617:RESET_B *876:10 0
23 *407:44 *9404:A 9.22103e-06
24 *499:20 *9404:A 0
25 *502:14 *9404:A 8.66063e-05
26 *590:31 *9405:A 0.000193814
27 *749:159 *9405:A 0.000190858
28 *749:159 *876:8 0.000140933
*RES
1 *9616:Q *876:8 15.1571 
2 *876:8 *876:10 2.55357 
3 *876:10 *9281:B 16.3536 
4 *876:10 *9404:A 17.6571 
5 *876:8 *9405:A 18.3714 
*END

*D_NET *877 0.00205344
*CONN
*I *9408:A I *D sky130_fd_sc_hd__and2_1
*I *9281:A I *D sky130_fd_sc_hd__or3_1
*I *9409:A I *D sky130_fd_sc_hd__or2_1
*I *9617:Q O *D sky130_fd_sc_hd__dfrtp_1
*CAP
1 *9408:A 2.48428e-05
2 *9281:A 0
3 *9409:A 0.000107441
4 *9617:Q 9.14964e-05
5 *877:16 0.000515492
6 *877:6 0.00052439
7 *9409:A *9412:A 2.59355e-05
8 *9281:B *877:16 3.47737e-05
9 *9282:D *9409:A 1.97695e-05
10 *9282:D *877:16 1.91004e-05
11 *9405:A *877:16 1.88048e-05
12 *9408:B *9408:A 2.28598e-05
13 *9408:B *877:6 2.89016e-05
14 *9408:B *877:16 9.55563e-05
15 *9410:A *877:6 2.27416e-05
16 *9412:B *9409:A 0
17 *9414:B *9409:A 0.000219711
18 *9617:RESET_B *877:16 0
19 *383:14 *9409:A 4.66711e-05
20 *383:14 *877:16 9.90367e-05
21 *407:42 *877:16 0
22 *502:14 *877:16 7.2754e-05
23 *876:10 *877:16 6.31653e-05
*RES
1 *9617:Q *877:6 11.0679 
2 *877:6 *877:16 17.4821 
3 *877:16 *9409:A 12.3357 
4 *877:16 *9281:A 9.3 
5 *877:6 *9408:A 9.83571 
*END

*D_NET *878 0.00499812
*CONN
*I *9412:A I *D sky130_fd_sc_hd__nor2_1
*I *9282:B I *D sky130_fd_sc_hd__or4_2
*I *9413:A I *D sky130_fd_sc_hd__and2_1
*I *9417:B I *D sky130_fd_sc_hd__or3_1
*I *9416:A1 I *D sky130_fd_sc_hd__o21a_1
*I *9618:Q O *D sky130_fd_sc_hd__dfrtp_1
*CAP
1 *9412:A 0.000307446
2 *9282:B 0.000253452
3 *9413:A 0
4 *9417:B 9.78321e-05
5 *9416:A1 8.68468e-05
6 *9618:Q 0
7 *878:42 0.000283398
8 *878:38 0.000446696
9 *878:14 0.00043796
10 *878:4 0.000362586
11 *9282:B *9282:A 0.000585692
12 *9412:A *9281:C 0.000133062
13 *878:14 *9416:B1 0.0002462
14 *878:14 *9417:A 0
15 *878:38 *9416:B1 0
16 *878:38 *9417:A 0.000101545
17 *878:42 *9282:A 5.33005e-05
18 *878:42 *9416:B1 5.33005e-05
19 *9281:B *9412:A 4.97121e-06
20 *9409:A *9412:A 2.59355e-05
21 *9409:B *9412:A 9.25014e-06
22 *9410:C_N *9412:A 8.89461e-05
23 *9412:B *9412:A 6.75704e-05
24 *9414:B *9282:B 0
25 *9414:B *9412:A 0.000150735
26 *9416:A2 *9416:A1 0.000122418
27 *9416:A2 *9417:B 3.4041e-05
28 *9416:A2 *878:14 3.33174e-05
29 *9419:A *9416:A1 2.44318e-05
30 *9419:A *878:14 1.77247e-05
31 *9420:B *9282:B 0
32 *9421:A1 *9282:B 3.99614e-06
33 *9618:RESET_B *878:14 5.33433e-05
34 *9618:RESET_B *878:38 2.44318e-05
35 *9619:RESET_B *9412:A 3.13184e-05
36 *9619:RESET_B *878:38 1.08359e-05
37 *9619:RESET_B *878:42 5.52302e-05
38 *9620:D *9282:B 6.79057e-05
39 *383:14 *9412:A 0.000354098
40 *505:40 *9282:B 4.58194e-05
41 *505:40 *9412:A 0.000290979
42 *505:40 *878:42 2.14658e-05
43 *505:52 *9282:B 0
44 *748:197 *9412:A 1.00375e-05
45 *749:130 *9412:A 0
46 *749:130 *878:14 0
47 *749:130 *878:38 0
*RES
1 *9618:Q *878:4 9.3 
2 *878:4 *878:14 14.0446 
3 *878:14 *9416:A1 11.2911 
4 *878:14 *9417:B 10.8804 
5 *878:4 *878:38 6.67857 
6 *878:38 *878:42 5.44643 
7 *878:42 *9413:A 9.3 
8 *878:42 *9282:B 25.3893 
9 *878:38 *9412:A 23.8893 
*END

*D_NET *879 0.00362017
*CONN
*I *9282:A I *D sky130_fd_sc_hd__or4_2
*I *9417:A I *D sky130_fd_sc_hd__or3_1
*I *9416:B1 I *D sky130_fd_sc_hd__o21a_1
*I *9619:Q O *D sky130_fd_sc_hd__dfrtp_1
*CAP
1 *9282:A 0.000468837
2 *9417:A 0.000169027
3 *9416:B1 0.000356062
4 *9619:Q 0
5 *879:4 0.000993926
6 *9281:B *9282:A 0
7 *9282:B *9282:A 0.000585692
8 *9282:C *9282:A 3.18676e-05
9 *9414:B *9282:A 0
10 *9418:A *9417:A 0.000125731
11 *9419:A *9416:B1 2.06112e-05
12 *9419:A *9417:A 6.53083e-05
13 *9420:B *9282:A 0
14 *9421:A2 *9282:A 3.51442e-05
15 *9619:RESET_B *9416:B1 6.79957e-05
16 *9619:RESET_B *9417:A 0.000156281
17 *9620:D *9416:B1 1.20244e-05
18 *383:14 *9282:A 5.33433e-05
19 *407:38 *9282:A 0
20 *407:42 *9282:A 0
21 *505:52 *9282:A 0
22 *748:163 *9417:A 2.39779e-05
23 *749:130 *9416:B1 0
24 *878:14 *9416:B1 0.0002462
25 *878:14 *9417:A 0
26 *878:38 *9416:B1 0
27 *878:38 *9417:A 0.000101545
28 *878:42 *9282:A 5.33005e-05
29 *878:42 *9416:B1 5.33005e-05
*RES
1 *9619:Q *879:4 9.3 
2 *879:4 *9416:B1 24.8536 
3 *879:4 *9417:A 22.675 
4 *879:4 *9282:A 28.3714 
*END

*D_NET *880 0.00080912
*CONN
*I *9758:A I *D sky130_fd_sc_hd__dlygate4sd3_1
*I *9281:C I *D sky130_fd_sc_hd__or3_1
*I *9620:Q O *D sky130_fd_sc_hd__dfrtp_1
*CAP
1 *9758:A 0.000136825
2 *9281:C 9.82334e-05
3 *9620:Q 0
4 *880:4 0.000235058
5 *9281:B *9281:C 8.00806e-05
6 *9412:A *9281:C 0.000133062
7 *9414:B *9281:C 3.34783e-05
8 *808:33 *9281:C 5.19842e-06
9 *808:33 *9758:A 8.71847e-05
*RES
1 *9620:Q *880:4 9.3 
2 *880:4 *9281:C 20.7821 
3 *880:4 *9758:A 12.2107 
*END

*D_NET *881 0.00171503
*CONN
*I *9422:B1 I *D sky130_fd_sc_hd__o21a_1
*I *9829:A I *D sky130_fd_sc_hd__dlygate4sd3_1
*I *9283:A I *D sky130_fd_sc_hd__nor2_1
*I *9621:Q O *D sky130_fd_sc_hd__dfrtp_1
*CAP
1 *9422:B1 1.86027e-05
2 *9829:A 0
3 *9283:A 2.23854e-05
4 *9621:Q 7.21068e-05
5 *881:27 0.000259167
6 *881:12 0.000335057
7 *9283:B *881:27 5.52238e-05
8 *9326:C *881:27 1.87955e-05
9 *9423:A *881:12 4.87953e-05
10 *9423:A *881:27 7.43578e-06
11 *9423:B *881:12 0.000125724
12 *406:10 *881:12 0.000125731
13 *407:84 *881:27 0
14 *412:18 *881:27 4.40142e-05
15 *435:21 *9422:B1 0.000144773
16 *731:28 *881:12 9.60939e-05
17 *731:28 *881:27 0.000198273
18 *748:41 *9422:B1 0.000142856
*RES
1 *9621:Q *881:12 20.8893 
2 *881:12 *9283:A 9.72857 
3 *881:12 *881:27 14.1429 
4 *881:27 *9829:A 9.3 
5 *881:27 *9422:B1 10.6571 
*END

*D_NET *882 0.00379887
*CONN
*I *9369:A I *D sky130_fd_sc_hd__or2_1
*I *9368:A I *D sky130_fd_sc_hd__and2_1
*I *9278:A I *D sky130_fd_sc_hd__or4_1
*I *9607:Q O *D sky130_fd_sc_hd__dfrtp_1
*CAP
1 *9369:A 0.000250807
2 *9368:A 0
3 *9278:A 0.000248312
4 *9607:Q 0.00014736
5 *882:20 0.000592348
6 *882:10 0.000742203
7 *9278:A *9278:D 4.46186e-06
8 *9278:B *9278:A 6.05161e-06
9 *9368:B *9278:A 0.000227539
10 *9368:B *882:20 9.90367e-05
11 *9370:A *882:20 0.00014285
12 *9370:C_N *9369:A 0
13 *9370:C_N *882:20 2.21972e-05
14 *9374:A *882:10 0.00012354
15 *9375:A *882:10 0.000136958
16 *9608:CLK *882:20 0.000410271
17 *9608:D *882:20 0.000100625
18 *347:234 *9278:A 0
19 *369:402 *9278:A 7.05982e-05
20 *407:127 *882:10 0
21 *408:10 *9278:A 6.26673e-05
22 *475:8 *9369:A 2.89016e-05
23 *731:16 *882:20 1.02936e-05
24 *731:28 *882:20 3.53079e-05
25 *748:118 *9369:A 2.68063e-05
26 *748:118 *882:10 0.000143824
27 *748:120 *9369:A 5.53052e-05
28 *748:134 *9369:A 0.00011061
*RES
1 *9607:Q *882:10 17.5589 
2 *882:10 *882:20 12.0268 
3 *882:20 *9278:A 23.5679 
4 *882:20 *9368:A 9.3 
5 *882:10 *9369:A 19.1661 
*END

*D_NET *883 0.00438891
*CONN
*I *9373:A I *D sky130_fd_sc_hd__and2_1
*I *9376:A1 I *D sky130_fd_sc_hd__o21a_1
*I *9372:A I *D sky130_fd_sc_hd__nor2_1
*I *9278:D I *D sky130_fd_sc_hd__or4_1
*I *9608:Q O *D sky130_fd_sc_hd__dfrtp_1
*CAP
1 *9373:A 2.03441e-05
2 *9376:A1 0
3 *9372:A 2.23854e-05
4 *9278:D 0.000489294
5 *9608:Q 0.000257959
6 *883:36 0.000911889
7 *883:24 0.000567747
8 *883:16 0.00044584
9 *883:36 *9376:B1 3.57366e-05
10 *9278:A *9278:D 4.46186e-06
11 *9373:B *9373:A 5.7661e-06
12 *9373:B *883:24 7.72917e-05
13 *9373:B *883:36 6.56534e-05
14 *9374:B *883:36 0.000802617
15 *9374:C *883:16 0
16 *9375:A *9278:D 5.52238e-05
17 *9609:D *9278:D 9.90431e-05
18 *347:234 *9278:D 0.000180427
19 *408:10 *9278:D 6.94441e-05
20 *470:29 *9278:D 6.65398e-05
21 *475:36 *883:36 0.000123082
22 *729:60 *883:16 0
23 *731:16 *883:16 4.37999e-05
24 *748:134 *883:36 4.43698e-05
*RES
1 *9608:Q *883:16 22.5679 
2 *883:16 *883:24 3.16071 
3 *883:24 *883:36 19.8036 
4 *883:36 *9278:D 28.1571 
5 *883:36 *9372:A 9.72857 
6 *883:24 *9376:A1 9.3 
7 *883:16 *9373:A 10.0321 
*END

*D_NET *884 0.00165099
*CONN
*I *9376:B1 I *D sky130_fd_sc_hd__o21a_1
*I *9278:C I *D sky130_fd_sc_hd__or4_1
*I *9609:Q O *D sky130_fd_sc_hd__dfrtp_1
*CAP
1 *9376:B1 7.12887e-05
2 *9278:C 0.000432233
3 *9609:Q 0
4 *884:4 0.000503521
5 *9378:A *9278:C 0.000253476
6 *9378:A *9376:B1 2.89016e-05
7 *9609:CLK *9278:C 7.31032e-05
8 *9609:RESET_B *9278:C 0.000178976
9 *9609:RESET_B *9376:B1 4.18895e-05
10 *475:36 *9376:B1 3.18676e-05
11 *883:36 *9376:B1 3.57366e-05
*RES
1 *9609:Q *884:4 9.3 
2 *884:4 *9278:C 18.05 
3 *884:4 *9376:B1 11.0857 
*END

*D_NET *885 0.00547798
*CONN
*I *9384:A1 I *D sky130_fd_sc_hd__o21a_1
*I *9380:A I *D sky130_fd_sc_hd__and2_1
*I *9279:B I *D sky130_fd_sc_hd__or4_1
*I *9385:B I *D sky130_fd_sc_hd__or3_2
*I *9381:A I *D sky130_fd_sc_hd__nor2_1
*I *9610:Q O *D sky130_fd_sc_hd__dfrtp_1
*CAP
1 *9384:A1 0.000215174
2 *9380:A 0.000151938
3 *9279:B 0.0004939
4 *9385:B 3.81225e-05
5 *9381:A 0.0001117
6 *9610:Q 0.000403915
7 *885:33 0.000811967
8 *885:29 0.000557705
9 *885:25 0.00040883
10 *885:8 0.000583449
11 *9279:B *9279:A 0.00016968
12 *9279:B *9385:A 1.04232e-05
13 *1002:DIODE *9384:A1 0
14 *9252:C *9279:B 1.08359e-05
15 *9381:B *9380:A 7.31334e-05
16 *9381:B *9381:A 1.5471e-05
17 *9383:A *9380:A 2.27416e-05
18 *9383:A *9381:A 3.76337e-05
19 *9384:A2 *9384:A1 8.33559e-05
20 *9385:C *9279:B 1.27782e-05
21 *9386:A *9279:B 0.000168224
22 *9387:A *9384:A1 0.000153047
23 *9390:B *9279:B 0.000177821
24 *9390:C *9279:B 3.4323e-05
25 *9391:A *9279:B 0.000111326
26 *9391:A *9385:B 1.02504e-05
27 *9610:D *9381:A 5.97113e-05
28 *9610:D *885:25 1.43198e-05
29 *9610:RESET_B *885:8 1.20244e-05
30 *9611:RESET_B *9384:A1 0.000125724
31 *347:234 *9279:B 0
32 *383:14 *885:8 5.79737e-05
33 *481:34 *9380:A 0.000117421
34 *481:34 *9385:B 0
35 *487:14 *9385:B 2.49484e-05
36 *487:29 *9279:B 7.90803e-05
37 *748:134 *9380:A 2.59093e-05
38 *748:134 *9381:A 1.69115e-05
39 *748:134 *9384:A1 6.87181e-05
40 *748:134 *885:25 7.49166e-06
*RES
1 *9610:Q *885:8 18.8536 
2 *885:8 *9381:A 16.4071 
3 *885:8 *885:25 1.52679 
4 *885:25 *885:29 3.70923 
5 *885:29 *885:33 3.9975 
6 *885:33 *9385:B 14.5321 
7 *885:33 *9279:B 31.5679 
8 *885:29 *9380:A 19.4734 
9 *885:25 *9384:A1 19.2375 
*END

*D_NET *886 0.00271304
*CONN
*I *9384:B1 I *D sky130_fd_sc_hd__o21a_1
*I *9385:A I *D sky130_fd_sc_hd__or3_2
*I *9279:A I *D sky130_fd_sc_hd__or4_1
*I *9611:Q O *D sky130_fd_sc_hd__dfrtp_1
*CAP
1 *9384:B1 0.000254577
2 *9385:A 0.000120097
3 *9279:A 0.000222767
4 *9611:Q 0
5 *886:17 0.000407164
6 *886:4 0.000255257
7 *9384:B1 *9393:B 4.87953e-05
8 *1002:DIODE *9279:A 2.42516e-05
9 *1002:DIODE *886:17 4.70078e-05
10 *9252:C *9279:A 0.000103977
11 *9279:B *9279:A 0.00016968
12 *9279:B *9385:A 1.04232e-05
13 *9385:C *9385:A 4.22908e-05
14 *9386:B *9279:A 4.72818e-05
15 *9386:B *9384:B1 5.09422e-05
16 *9386:C_N *9279:A 9.41642e-05
17 *9387:A *9279:A 5.33005e-05
18 *9387:A *886:17 0.000140933
19 *9390:B *9384:B1 2.9603e-05
20 *9390:B *9385:A 5.7234e-05
21 *9610:CLK *9384:B1 3.17148e-05
22 *9610:CLK *9385:A 0.000171368
23 *383:14 *9385:A 9.90367e-05
24 *487:14 *9279:A 6.12335e-05
25 *487:46 *9384:B1 1.02504e-05
26 *590:104 *9384:B1 0.000159689
*RES
1 *9611:Q *886:4 9.3 
2 *886:4 *9279:A 14.7821 
3 *886:4 *886:17 5.85714 
4 *886:17 *9385:A 17.425 
5 *886:17 *9384:B1 18.5321 
*END

*D_NET *887 0.00549465
*CONN
*I *9393:B I *D sky130_fd_sc_hd__or3_1
*I *9388:A I *D sky130_fd_sc_hd__nor2_1
*I *9389:A I *D sky130_fd_sc_hd__and2_1
*I *9392:A1 I *D sky130_fd_sc_hd__o21a_1
*I *9280:B I *D sky130_fd_sc_hd__or4_1
*I *9612:Q O *D sky130_fd_sc_hd__dfrtp_1
*CAP
1 *9393:B 0.000266149
2 *9388:A 1.91209e-05
3 *9389:A 0.000147897
4 *9392:A1 7.26494e-05
5 *9280:B 0.000169853
6 *9612:Q 0.000259113
7 *887:53 0.000469931
8 *887:32 0.000523648
9 *887:10 0.000343116
10 *887:6 0.000550818
11 *9280:B *9280:A 0.00033693
12 *9392:A1 *9393:A 0.000127476
13 *9392:A1 *888:23 1.24368e-05
14 *887:10 *9280:A 4.80729e-05
15 *887:10 *888:10 0.00012401
16 *1002:DIODE *9393:B 0.00015234
17 *9280:C *9280:B 3.17067e-05
18 *9280:D *9280:B 0.000100831
19 *9384:B1 *9393:B 4.87953e-05
20 *9386:B *9393:B 0.000180777
21 *9388:B *9393:B 5.52302e-05
22 *9389:B *9389:A 0.000102013
23 *9390:B *9393:B 4.18895e-05
24 *9390:B *887:53 5.52302e-05
25 *9390:C *9389:A 0.000106552
26 *9390:C *887:10 0
27 *9392:A2 *9392:A1 5.52302e-05
28 *9392:A2 *9393:B 0
29 *9612:D *9389:A 6.05161e-06
30 *9612:RESET_B *887:6 4.96254e-05
31 *369:402 *9280:B 5.90443e-06
32 *393:10 *9389:A 0.00020042
33 *487:42 *9393:B 0.000103039
34 *590:93 *887:6 9.66457e-05
35 *590:93 *887:32 9.77061e-05
36 *590:93 *887:53 8.80451e-05
37 *590:104 *9393:B 0.000219835
38 *590:104 *887:53 2.44318e-05
39 *808:33 *9280:B 0.000159537
40 *808:33 *887:10 4.15914e-05
*RES
1 *9612:Q *887:6 12.7107 
2 *887:6 *887:10 6.75 
3 *887:10 *9280:B 19.0857 
4 *887:10 *9392:A1 15.5857 
5 *887:6 *887:32 2.58929 
6 *887:32 *9389:A 22.5321 
7 *887:32 *887:53 3.14286 
8 *887:53 *9388:A 9.72857 
9 *887:53 *9393:B 25.3536 
*END

*D_NET *888 0.00286085
*CONN
*I *9393:A I *D sky130_fd_sc_hd__or3_1
*I *9392:B1 I *D sky130_fd_sc_hd__o21a_1
*I *9280:A I *D sky130_fd_sc_hd__or4_1
*I *9613:Q O *D sky130_fd_sc_hd__dfrtp_1
*CAP
1 *9393:A 0.000147641
2 *9392:B1 0
3 *9280:A 0.00018184
4 *9613:Q 0.000383368
5 *888:23 0.000177502
6 *888:10 0.000595069
7 *9252:A *9393:A 9.71197e-05
8 *9252:C *9393:A 6.28499e-05
9 *9280:B *9280:A 0.00033693
10 *9390:C *888:10 0
11 *9392:A1 *9393:A 0.000127476
12 *9392:A1 *888:23 1.24368e-05
13 *9392:A2 *9393:A 5.51819e-05
14 *9394:B *9280:A 6.67033e-05
15 *9613:RESET_B *888:10 0
16 *369:402 *9280:A 6.09476e-05
17 *487:29 *9393:A 1.95435e-05
18 *487:42 *9393:A 0.000215553
19 *493:10 *9393:A 0.000122666
20 *493:10 *888:23 2.59355e-05
21 *748:79 *9280:A 0
22 *748:89 *888:10 0
23 *887:10 *9280:A 4.80729e-05
24 *887:10 *888:10 0.00012401
*RES
1 *9613:Q *888:10 19.6393 
2 *888:10 *9280:A 18.7821 
3 *888:10 *888:23 5.03571 
4 *888:23 *9392:B1 9.3 
5 *888:23 *9393:A 13.9429 
*END

*D_NET *889 0.00252982
*CONN
*I *9396:A I *D sky130_fd_sc_hd__nor2_1
*I *9279:D I *D sky130_fd_sc_hd__or4_1
*I *9400:A1 I *D sky130_fd_sc_hd__o21a_1
*I *9397:A I *D sky130_fd_sc_hd__and2_1
*I *9614:Q O *D sky130_fd_sc_hd__dfrtp_1
*CAP
1 *9396:A 0
2 *9279:D 0.000157978
3 *9400:A1 0
4 *9397:A 2.12086e-05
5 *9614:Q 0.000209173
6 *889:29 0.000279536
7 *889:16 0.000173436
8 *889:12 0.000239842
9 *9279:D *9279:C 0.000255068
10 *9279:D *9400:B1 0.000142856
11 *1003:DIODE *9279:D 2.89016e-05
12 *9397:B *9397:A 5.52302e-05
13 *9398:B *889:12 0
14 *383:14 *889:12 2.14658e-05
15 *404:14 *889:12 0
16 *404:14 *889:29 0.000103275
17 *410:6 *9397:A 9.90431e-05
18 *410:6 *889:12 0.000119193
19 *410:6 *889:16 4.38128e-05
20 *493:24 *9397:A 2.14658e-05
21 *493:24 *889:12 0.000188586
22 *493:24 *889:16 2.72418e-05
23 *493:24 *889:29 0
24 *748:79 *889:12 0.000342502
25 *748:79 *889:29 0
*RES
1 *9614:Q *889:12 24.8536 
2 *889:12 *889:16 0.964286 
3 *889:16 *9397:A 10.2464 
4 *889:16 *889:29 11.5536 
5 *889:29 *9400:A1 9.3 
6 *889:29 *9279:D 13.1214 
7 *889:12 *9396:A 9.3 
*END

*D_NET *890 0.00128085
*CONN
*I *9279:C I *D sky130_fd_sc_hd__or4_1
*I *9400:B1 I *D sky130_fd_sc_hd__o21a_1
*I *9615:Q O *D sky130_fd_sc_hd__dfrtp_1
*CAP
1 *9279:C 0.000123049
2 *9400:B1 0.000121854
3 *9615:Q 7.79898e-05
4 *890:10 0.000322893
5 *1003:DIODE *9279:C 8.43535e-06
6 *9252:C *9279:C 7.43578e-06
7 *9279:D *9279:C 0.000255068
8 *9279:D *9400:B1 0.000142856
9 *9400:A2 *9279:C 5.03772e-05
10 *9400:A2 *9400:B1 0.000102197
11 *9403:A *9400:B1 0
12 *404:14 *890:10 0
13 *493:16 *890:10 3.48235e-05
14 *493:24 *890:10 2.94103e-05
15 *749:159 *890:10 4.46186e-06
*RES
1 *9615:Q *890:10 19.9429 
2 *890:10 *9400:B1 12.3179 
3 *890:10 *9279:C 12.3 
*END

*D_NET *891 0.00833733
*CONN
*I *9808:A I *D sky130_fd_sc_hd__dlygate4sd3_1
*I *9286:B I *D sky130_fd_sc_hd__nand2_1
*I *9287:B I *D sky130_fd_sc_hd__or2_1
*I *9294:B I *D sky130_fd_sc_hd__and4_1
*I *9290:B I *D sky130_fd_sc_hd__nand3_1
*I *9291:A2 I *D sky130_fd_sc_hd__a21o_1
*I *9296:A2 I *D sky130_fd_sc_hd__a31o_1
*I *9258:A I *D sky130_fd_sc_hd__and3_1
*I *9597:Q O *D sky130_fd_sc_hd__dfrtp_2
*CAP
1 *9808:A 0.000265373
2 *9286:B 7.70159e-05
3 *9287:B 0
4 *9294:B 0.000157517
5 *9290:B 0.000456253
6 *9291:A2 4.32975e-05
7 *9296:A2 0
8 *9258:A 0.000390985
9 *9597:Q 3.35353e-05
10 *891:99 0.000405308
11 *891:59 0.000833843
12 *891:20 0.000573331
13 *891:14 0.000403569
14 *891:12 0.000655621
15 *891:10 0.00069322
16 *891:8 0.000406214
17 *9258:A *1034:DIODE 5.80706e-06
18 *9258:A *894:22 0
19 *9258:A *894:40 0
20 *9286:B *9286:A 5.71472e-05
21 *9290:B *1033:DIODE 6.3532e-05
22 *9290:B *9290:A 0.00032842
23 *9290:B *9290:C 8.63635e-05
24 *9291:A2 *9294:A 3.57366e-05
25 *9291:A2 *892:12 3.18676e-05
26 *9291:A2 *892:16 1.7859e-05
27 *9294:B *9291:B1 0
28 *9294:B *9294:A 2.59355e-05
29 *9294:B *9294:D 2.35692e-05
30 *9294:B *893:35 0.000136958
31 *891:8 *9272:A 1.40415e-05
32 *891:10 *9260:A 0
33 *891:12 *9260:A 0
34 *891:12 *892:12 0
35 *891:12 *892:60 0
36 *891:14 *892:12 0
37 *891:20 *1034:DIODE 8.06427e-05
38 *891:20 *1036:DIODE 2.06112e-05
39 *891:20 *892:12 0
40 *891:20 *892:38 1.10866e-05
41 *891:20 *893:33 0.000126439
42 *891:99 *9286:A 4.1074e-05
43 *891:99 *892:64 5.33005e-05
44 *1031:DIODE *9286:B 1.74352e-05
45 *1031:DIODE *891:99 1.39841e-05
46 *9288:B *891:59 0
47 *9288:B *891:99 1.24368e-05
48 *9288:C *9286:B 2.44318e-05
49 *9288:C *891:99 4.02699e-05
50 *9288:D *891:99 0.000144773
51 *9289:A *9808:A 0
52 *9289:A *891:10 0
53 *9295:A *9290:B 0.00019064
54 *9295:A *9294:B 3.69047e-06
55 *9297:C *9294:B 0.000145248
56 *9598:D *9808:A 8.89289e-05
57 *9598:D *891:10 8.89385e-05
58 *9598:D *891:12 6.42242e-05
59 *9599:RESET_B *9258:A 0
60 *322:281 *9290:B 0.0002799
61 *322:281 *9294:B 0.000167277
62 *369:304 *9258:A 5.62995e-05
63 *369:321 *9258:A 1.04232e-05
64 *369:334 *9258:A 0
65 *369:345 *9258:A 0
66 *369:345 *891:20 0
67 *369:389 *9808:A 0
68 *404:14 *9808:A 0
69 *729:56 *9258:A 9.90431e-05
70 *742:12 *891:59 0.000269428
71 *745:64 *9258:A 0
72 *745:64 *9294:B 3.83544e-05
73 *745:64 *891:12 0
74 *745:64 *891:14 0
75 *745:64 *891:20 0
76 *745:64 *891:59 2.61337e-05
77 *745:71 *891:12 0
*RES
1 *9597:Q *891:8 14.3357 
2 *891:8 *891:10 2.25 
3 *891:10 *891:12 4.07143 
4 *891:12 *891:14 2.85714 
5 *891:14 *891:20 3.82143 
6 *891:20 *9258:A 20.1571 
7 *891:20 *9296:A2 13.8 
8 *891:14 *9291:A2 14.7643 
9 *891:12 *891:59 12.3214 
10 *891:59 *9290:B 23.1571 
11 *891:59 *9294:B 18.4429 
12 *891:10 *891:99 9.73214 
13 *891:99 *9287:B 9.3 
14 *891:99 *9286:B 11.0857 
15 *891:8 *9808:A 19.0857 
*END

*D_NET *892 0.00595106
*CONN
*I *9260:A I *D sky130_fd_sc_hd__and3_1
*I *9286:A I *D sky130_fd_sc_hd__nand2_1
*I *9287:A I *D sky130_fd_sc_hd__or2_1
*I *9296:A1 I *D sky130_fd_sc_hd__a31o_1
*I *9290:A I *D sky130_fd_sc_hd__nand3_1
*I *9294:A I *D sky130_fd_sc_hd__and4_1
*I *9291:A1 I *D sky130_fd_sc_hd__a21o_1
*I *9598:Q O *D sky130_fd_sc_hd__dfrtp_2
*CAP
1 *9260:A 0.000244739
2 *9286:A 5.2754e-05
3 *9287:A 0
4 *9296:A1 8.56038e-05
5 *9290:A 0.000239543
6 *9294:A 0.000151738
7 *9291:A1 0
8 *9598:Q 0
9 *892:64 7.13934e-05
10 *892:60 0.000376931
11 *892:38 0.000420991
12 *892:16 0.000181411
13 *892:12 0.000465192
14 *892:6 0.000453227
15 *9290:A *894:50 8.25843e-06
16 *9290:A *894:72 3.1521e-05
17 *9294:A *9291:B1 1.58163e-05
18 *9294:A *893:33 2.07491e-05
19 *9294:A *893:35 1.39726e-05
20 *9296:A1 *893:23 5.17614e-05
21 *9296:A1 *894:72 0.000177567
22 *892:12 *1034:DIODE 0.000144773
23 *892:12 *893:33 1.98839e-05
24 *892:16 *9291:B1 1.85443e-05
25 *892:16 *893:33 2.89016e-05
26 *892:38 *9291:B1 7.48927e-06
27 *892:38 *893:33 0.000101545
28 *9260:B *9260:A 2.51343e-06
29 *9260:C *9260:A 3.88458e-05
30 *9286:B *9286:A 5.71472e-05
31 *9288:C *9286:A 0.000139907
32 *9288:C *892:64 1.98839e-05
33 *9289:A *9260:A 0.000371111
34 *9290:B *9290:A 0.00032842
35 *9291:A2 *9294:A 3.57366e-05
36 *9291:A2 *892:12 3.18676e-05
37 *9291:A2 *892:16 1.7859e-05
38 *9292:C *9290:A 5.04589e-05
39 *9292:D *9290:A 0.000277231
40 *9294:B *9294:A 2.59355e-05
41 *9297:D *9290:A 5.71472e-05
42 *9297:D *892:38 7.69776e-06
43 *369:345 *892:12 8.32242e-05
44 *369:354 *9260:A 0.000293429
45 *369:354 *892:12 0.000258422
46 *369:354 *892:60 0.00022287
47 *369:372 *9260:A 0.000114045
48 *745:64 *892:38 2.75364e-05
49 *891:10 *9260:A 0
50 *891:12 *9260:A 0
51 *891:12 *892:12 0
52 *891:12 *892:60 0
53 *891:14 *892:12 0
54 *891:20 *892:12 0
55 *891:20 *892:38 1.10866e-05
56 *891:99 *9286:A 4.1074e-05
57 *891:99 *892:64 5.33005e-05
*RES
1 *9598:Q *892:6 13.8 
2 *892:6 *892:12 11.875 
3 *892:12 *892:16 0.964286 
4 *892:16 *9291:A1 9.3 
5 *892:16 *9294:A 11.9071 
6 *892:12 *892:38 11.0714 
7 *892:38 *9290:A 15.4964 
8 *892:38 *9296:A1 12.1214 
9 *892:6 *892:60 2.85714 
10 *892:60 *892:64 5.03571 
11 *892:64 *9287:A 9.3 
12 *892:64 *9286:A 11.0857 
13 *892:60 *9260:A 20.4607 
*END

*D_NET *893 0.00408119
*CONN
*I *9296:A3 I *D sky130_fd_sc_hd__a31o_1
*I *9291:B1 I *D sky130_fd_sc_hd__a21o_1
*I *9294:D I *D sky130_fd_sc_hd__and4_1
*I *9290:C I *D sky130_fd_sc_hd__nand3_1
*I *9262:A I *D sky130_fd_sc_hd__and3_1
*I *9599:Q O *D sky130_fd_sc_hd__dfrtp_1
*CAP
1 *9296:A3 0
2 *9291:B1 4.20706e-05
3 *9294:D 4.65897e-05
4 *9290:C 0.000332835
5 *9262:A 1.53865e-05
6 *9599:Q 0.000324666
7 *893:35 0.000507639
8 *893:33 0.00041407
9 *893:23 0.000379232
10 *893:12 0.000475499
11 *9262:A *894:72 1.97695e-05
12 *893:23 *894:72 1.74352e-05
13 *1014:DIODE *893:12 6.79057e-05
14 *9262:B *893:12 1.58163e-05
15 *9262:C *893:12 1.95435e-05
16 *9290:B *9290:C 8.63635e-05
17 *9292:B *9290:C 0
18 *9294:A *9291:B1 1.58163e-05
19 *9294:A *893:33 2.07491e-05
20 *9294:A *893:35 1.39726e-05
21 *9294:B *9291:B1 0
22 *9294:B *9294:D 2.35692e-05
23 *9294:B *893:35 0.000136958
24 *9295:A *9294:D 1.58163e-05
25 *9295:A *893:35 5.74499e-06
26 *9296:A1 *893:23 5.17614e-05
27 *9297:B *9294:D 0
28 *9297:D *9290:C 0
29 *398:6 *9262:A 0
30 *398:10 *893:12 0.000449539
31 *414:41 *9290:C 1.24368e-05
32 *414:52 *9290:C 0.000213172
33 *414:52 *9294:D 1.24368e-05
34 *586:14 *9290:C 4.15914e-05
35 *745:64 *893:33 0
36 *891:20 *893:33 0.000126439
37 *892:12 *893:33 1.98839e-05
38 *892:16 *9291:B1 1.85443e-05
39 *892:16 *893:33 2.89016e-05
40 *892:38 *9291:B1 7.48927e-06
41 *892:38 *893:33 0.000101545
*RES
1 *9599:Q *893:12 25.8179 
2 *893:12 *9262:A 9.72857 
3 *893:12 *893:23 2.60714 
4 *893:23 *893:33 13.25 
5 *893:33 *893:35 2.17857 
6 *893:35 *9290:C 23.925 
7 *893:35 *9294:D 10.6929 
8 *893:33 *9291:B1 10.5679 
9 *893:23 *9296:A3 9.3 
*END

*D_NET *894 0.0271386
*CONN
*I *9296:B1 I *D sky130_fd_sc_hd__a31o_1
*I *1034:DIODE I *D sky130_fd_sc_hd__diode_2
*I *1033:DIODE I *D sky130_fd_sc_hd__diode_2
*I *9294:C I *D sky130_fd_sc_hd__and4_1
*I *9264:A I *D sky130_fd_sc_hd__and3_1
*I *1016:DIODE I *D sky130_fd_sc_hd__diode_2
*I *9600:Q O *D sky130_fd_sc_hd__dfrtp_2
*CAP
1 *9296:B1 0
2 *1034:DIODE 0.000304199
3 *1033:DIODE 0.000235453
4 *9294:C 0
5 *9264:A 0.00013016
6 *1016:DIODE 0
7 *9600:Q 6.59538e-05
8 *894:72 0.000545869
9 *894:50 0.00060304
10 *894:40 0.000755058
11 *894:22 0.00825829
12 *894:8 0.00833989
13 *1011:DIODE *894:22 0
14 *1018:DIODE *9264:A 0.000186662
15 *1018:DIODE *894:22 8.27184e-06
16 *1032:DIODE *894:50 8.33153e-05
17 *9186:B1 *894:22 0.000539032
18 *9258:A *1034:DIODE 5.80706e-06
19 *9258:A *894:22 0
20 *9258:A *894:40 0
21 *9262:A *894:72 1.97695e-05
22 *9264:B *9264:A 0
23 *9288:B *1033:DIODE 0.000183984
24 *9288:B *894:50 5.33072e-05
25 *9290:A *894:50 8.25843e-06
26 *9290:A *894:72 3.1521e-05
27 *9290:B *1033:DIODE 6.3532e-05
28 *9292:B *894:50 0.000209772
29 *9292:D *894:50 1.39726e-05
30 *9293:A *894:50 4.37485e-06
31 *9295:A *1033:DIODE 5.83233e-05
32 *9295:A *894:50 0.000257601
33 *9296:A1 *894:72 0.000177567
34 *9297:C *1033:DIODE 2.42516e-05
35 *9476:B2 *894:22 0.000186047
36 *9599:RESET_B *894:40 0.000100823
37 *9716:RESET_B *894:22 0.000259656
38 *322:281 *1033:DIODE 7.02611e-05
39 *322:281 *894:50 4.98055e-06
40 *369:290 *894:22 0.00116117
41 *369:345 *1034:DIODE 0
42 *398:6 *894:72 0
43 *537:50 *894:22 0
44 *584:215 *894:22 0.00124066
45 *696:16 *894:8 9.90431e-05
46 *729:56 *894:22 0
47 *732:62 *894:22 0.00193959
48 *742:12 *1033:DIODE 0.000438794
49 *745:49 *894:22 0
50 *745:49 *894:40 0
51 *745:62 *894:40 0.00011327
52 *755:14 *894:22 5.78972e-05
53 *757:74 *894:22 5.6321e-05
54 *891:20 *1034:DIODE 8.06427e-05
55 *892:12 *1034:DIODE 0.000144773
56 *893:23 *894:72 1.74352e-05
*RES
1 *9600:Q *894:8 14.7464 
2 *894:8 *894:22 40.1872 
3 *894:22 *1016:DIODE 9.3 
4 *894:22 *9264:A 12.4071 
5 *894:8 *894:40 7.05357 
6 *894:40 *894:50 11.1071 
7 *894:50 *9294:C 13.8 
8 *894:50 *1033:DIODE 20.5857 
9 *894:40 *894:72 3.73214 
10 *894:72 *1034:DIODE 23.675 
11 *894:72 *9296:B1 9.3 
*END

*D_NET *895 0.0316004
*CONN
*I *1019:DIODE I *D sky130_fd_sc_hd__diode_2
*I *9266:A I *D sky130_fd_sc_hd__and3_1
*I *9299:A I *D sky130_fd_sc_hd__nand2_1
*I *1036:DIODE I *D sky130_fd_sc_hd__diode_2
*I *1039:DIODE I *D sky130_fd_sc_hd__diode_2
*I *9303:B I *D sky130_fd_sc_hd__and3_1
*I *9305:A1 I *D sky130_fd_sc_hd__a21o_1
*I *1040:DIODE I *D sky130_fd_sc_hd__diode_2
*I *9300:A I *D sky130_fd_sc_hd__or2_1
*I *1037:DIODE I *D sky130_fd_sc_hd__diode_2
*I *9601:Q O *D sky130_fd_sc_hd__dfrtp_4
*CAP
1 *1019:DIODE 0.000160551
2 *9266:A 9.42398e-05
3 *9299:A 0
4 *1036:DIODE 0.000723605
5 *1039:DIODE 8.62659e-05
6 *9303:B 6.59684e-05
7 *9305:A1 0
8 *1040:DIODE 0
9 *9300:A 0
10 *1037:DIODE 0
11 *9601:Q 0
12 *895:122 0.0010315
13 *895:120 0.00759428
14 *895:82 0.000802768
15 *895:58 0.000276556
16 *895:49 0.000147949
17 *895:47 0.000321468
18 *895:36 0.000715838
19 *895:21 0.000600116
20 *895:12 0.000391957
21 *895:6 0.00710657
22 *895:47 *9268:A 0.000104227
23 *895:47 *9303:A 4.6025e-06
24 *895:47 *896:25 5.02445e-05
25 *895:49 *9303:A 6.57499e-06
26 *895:58 *9303:A 2.42516e-05
27 *1021:DIODE *1019:DIODE 0
28 *1212:DIODE *895:120 0.000301162
29 *9189:A *9266:A 5.52302e-05
30 *9219:B *1019:DIODE 5.10822e-05
31 *9219:B *895:122 1.17968e-05
32 *9230:A1 *895:122 0.00161141
33 *9244:A *1036:DIODE 0.000315225
34 *9244:A *895:120 0.00121756
35 *9297:D *1036:DIODE 0.00022091
36 *9300:B *895:21 5.7661e-06
37 *9301:C *895:47 4.15183e-05
38 *9301:D *895:21 5.33334e-05
39 *9301:D *895:36 1.21258e-05
40 *9305:A2 *895:49 3.39451e-05
41 *9305:A2 *895:58 6.55169e-05
42 *9307:A *1039:DIODE 1.55885e-05
43 *9425:A *895:12 5.71472e-05
44 *9426:B1 *895:12 6.05161e-06
45 *9446:A0 *895:120 0
46 *9446:A0 *895:122 0
47 *9447:A *895:120 0.000154762
48 *9449:A *895:122 0.000313608
49 *9601:CLK *1036:DIODE 0.000298655
50 *9601:RESET_B *895:36 1.17968e-05
51 *9602:D *1036:DIODE 4.31238e-05
52 *9602:D *1039:DIODE 2.34204e-05
53 *9602:D *895:47 5.32055e-05
54 *9602:D *895:49 1.53144e-05
55 *9602:D *895:58 5.86568e-05
56 *9602:D *895:82 1.023e-05
57 *322:150 *895:122 0
58 *337:339 *9266:A 4.51526e-05
59 *347:109 *895:12 9.03649e-05
60 *347:109 *895:120 5.58875e-06
61 *347:143 *1039:DIODE 6.05161e-06
62 *348:12 *9266:A 6.05161e-06
63 *369:10 *895:120 0.000101825
64 *369:56 *895:120 0
65 *369:56 *895:122 0
66 *369:82 *895:122 0.000214025
67 *369:92 *895:122 0.000503639
68 *369:158 *895:122 0
69 *584:24 *895:120 0.000342467
70 *584:38 *895:120 0.0003571
71 *584:72 *895:47 0
72 *584:197 *895:120 9.45773e-05
73 *696:16 *895:36 0.00021075
74 *696:16 *895:47 1.74352e-05
75 *705:14 *1039:DIODE 2.37761e-05
76 *705:14 *895:58 2.37761e-05
77 *721:14 *895:120 0.00203276
78 *731:64 *895:12 0.000186662
79 *731:66 *895:12 0.00010096
80 *739:276 *895:120 0.000102748
81 *739:301 *895:120 0.000106592
82 *741:130 *895:122 0.000380151
83 *742:12 *9303:B 9.90367e-05
84 *742:61 *895:12 0
85 *745:107 *895:36 5.33882e-05
86 *749:90 *895:36 0.000128154
87 *755:14 *895:120 0.000877493
88 *820:10 *895:120 0
89 *820:25 *895:120 0
90 *863:88 *895:120 0.000101601
91 *891:20 *1036:DIODE 2.06112e-05
*RES
1 *9601:Q *895:6 13.8 
2 *895:6 *895:12 10.875 
3 *895:12 *1037:DIODE 9.3 
4 *895:12 *895:21 2.19643 
5 *895:21 *9300:A 9.3 
6 *895:21 *895:36 16.6429 
7 *895:36 *1040:DIODE 9.3 
8 *895:36 *895:47 9.41071 
9 *895:47 *895:49 0.732143 
10 *895:49 *9305:A1 13.8 
11 *895:49 *895:58 2.55357 
12 *895:58 *9303:B 14.7464 
13 *895:58 *1039:DIODE 15.3714 
14 *895:47 *895:82 1.08036 
15 *895:82 *1036:DIODE 23.3889 
16 *895:82 *9299:A 13.8 
17 *895:6 *895:120 39.3428 
18 *895:120 *895:122 24.5625 
19 *895:122 *9266:A 15.5679 
20 *895:122 *1019:DIODE 16.0857 
*END

*D_NET *896 0.00520139
*CONN
*I *9303:A I *D sky130_fd_sc_hd__and3_1
*I *9305:B1 I *D sky130_fd_sc_hd__a21o_1
*I *9268:A I *D sky130_fd_sc_hd__and3_1
*I *9602:Q O *D sky130_fd_sc_hd__dfrtp_1
*CAP
1 *9303:A 0.000123995
2 *9305:B1 0
3 *9268:A 0.000396313
4 *9602:Q 0.00028137
5 *896:25 0.000191676
6 *896:12 0.000745363
7 *9293:A *9268:A 0.000144773
8 *9300:B *896:12 4.88715e-05
9 *9301:C *896:25 4.32258e-05
10 *9301:D *896:12 0.000142856
11 *9303:C *9303:A 2.59355e-05
12 *9305:A2 *9303:A 9.9462e-05
13 *9602:RESET_B *896:12 5.15078e-05
14 *322:260 *9303:A 9.71197e-05
15 *369:290 *9268:A 0.00101514
16 *369:297 *9268:A 0.00014183
17 *421:40 *9303:A 2.59355e-05
18 *584:72 *9268:A 0.000274294
19 *705:14 *9268:A 0.000484578
20 *705:14 *9303:A 0.000163917
21 *705:14 *896:25 0.000134444
22 *729:56 *9268:A 0.000170964
23 *745:49 *9268:A 0.000207913
24 *895:47 *9268:A 0.000104227
25 *895:47 *9303:A 4.6025e-06
26 *895:47 *896:25 5.02445e-05
27 *895:49 *9303:A 6.57499e-06
28 *895:58 *9303:A 2.42516e-05
*RES
1 *9602:Q *896:12 18.5857 
2 *896:12 *9268:A 30.8 
3 *896:12 *896:25 1.94643 
4 *896:25 *9305:B1 13.8 
5 *896:25 *9303:A 17.425 
*END

*D_NET *897 0.0218879
*CONN
*I *9270:A I *D sky130_fd_sc_hd__and3_1
*I *1025:DIODE I *D sky130_fd_sc_hd__diode_2
*I *1043:DIODE I *D sky130_fd_sc_hd__diode_2
*I *9309:B2 I *D sky130_fd_sc_hd__o2bb2a_1
*I *1042:DIODE I *D sky130_fd_sc_hd__diode_2
*I *9308:A I *D sky130_fd_sc_hd__and2_1
*I *9603:Q O *D sky130_fd_sc_hd__dfrtp_1
*CAP
1 *9270:A 0.000185818
2 *1025:DIODE 6.89484e-05
3 *1043:DIODE 0
4 *9309:B2 0
5 *1042:DIODE 0.000255085
6 *9308:A 0.000254964
7 *9603:Q 0
8 *897:82 0.00810532
9 *897:26 0.000629304
10 *897:22 0.000315484
11 *897:16 0.000474704
12 *897:4 0.00812903
13 *9226:A *9270:A 0.000140933
14 *9230:A1 *1025:DIODE 7.76017e-05
15 *9230:A1 *9270:A 1.43455e-05
16 *9250:B *897:16 4.16114e-05
17 *9250:B *897:22 2.15363e-05
18 *9285:A *897:22 0.000144773
19 *9285:A *897:26 1.54142e-05
20 *9308:B *9308:A 0
21 *9309:A1_N *897:22 0.000155629
22 *9309:B1 *1042:DIODE 0.000399505
23 *9309:B1 *897:26 0.000137983
24 *9310:A_N *9308:A 3.18676e-05
25 *9310:B *9308:A 1.21258e-05
26 *9310:B *897:16 0.000108848
27 *9310:B *897:22 5.80706e-06
28 *9311:A *9308:A 6.15503e-05
29 *9313:B1 *9308:A 0.000224583
30 *9361:A1 *897:82 0.000123522
31 *9362:B2 *897:16 0
32 *9442:A0 *9270:A 1.24368e-05
33 *9442:A1 *9270:A 1.02504e-05
34 *9442:S *9270:A 1.98839e-05
35 *9723:A *897:82 0
36 *276:40 *897:82 0.000173229
37 *321:76 *897:82 7.38844e-05
38 *321:80 *897:16 0.000202842
39 *321:80 *897:82 6.09476e-05
40 *322:10 *9308:A 0.000220448
41 *322:112 *1025:DIODE 0.000125724
42 *322:127 *1025:DIODE 4.53834e-05
43 *322:127 *9270:A 3.54188e-05
44 *322:338 *9308:A 1.02504e-05
45 *369:82 *9270:A 8.43535e-06
46 *391:26 *897:82 0
47 *405:69 *897:82 2.8643e-05
48 *584:197 *897:82 9.67237e-05
49 *735:72 *897:82 0.000288791
50 *749:90 *9308:A 5.41794e-05
51 *749:98 *897:22 3.26643e-05
52 *749:120 *9308:A 0.000164554
53 *757:50 *897:82 8.69414e-05
54 *757:52 *897:16 0
55 *757:56 *897:22 0
*RES
1 *9603:Q *897:4 9.3 
2 *897:4 *897:16 11.2143 
3 *897:16 *897:22 8.94643 
4 *897:22 *897:26 2.19643 
5 *897:26 *9308:A 25.55 
6 *897:26 *1042:DIODE 14.6393 
7 *897:22 *9309:B2 9.3 
8 *897:16 *1043:DIODE 13.8 
9 *897:4 *897:82 32.2529 
10 *897:82 *1025:DIODE 15.8982 
11 *897:82 *9270:A 16.9875 
*END

*D_NET *898 0.00287203
*CONN
*I *9272:A I *D sky130_fd_sc_hd__and3_1
*I *9312:A I *D sky130_fd_sc_hd__nand2_1
*I *9313:A1 I *D sky130_fd_sc_hd__o21a_1
*I *9604:Q O *D sky130_fd_sc_hd__dfrtp_1
*CAP
1 *9272:A 0.000320888
2 *9312:A 4.55177e-05
3 *9313:A1 0.000121611
4 *9604:Q 0
5 *898:6 0.000785162
6 *898:4 0.000938922
7 *9312:B *9312:A 2.34059e-05
8 *9313:B1 *9313:A1 5.86894e-06
9 *9314:C *9313:A1 1.58213e-06
10 *9315:A *9312:A 0.000139409
11 *9597:RESET_B *9272:A 2.51935e-05
12 *9598:D *9272:A 3.69697e-05
13 *9604:CLK *9313:A1 1.58163e-05
14 *9604:CLK *898:6 4.00679e-05
15 *9604:RESET_B *9272:A 7.83587e-05
16 *9604:RESET_B *898:6 8.94203e-05
17 *435:8 *9312:A 7.83587e-05
18 *587:14 *898:6 0.000111439
19 *891:8 *9272:A 1.40415e-05
*RES
1 *9604:Q *898:4 9.3 
2 *898:4 *898:6 7.51786 
3 *898:6 *9313:A1 10.9786 
4 *898:6 *9312:A 20.0679 
5 *898:4 *9272:A 22.7643 
*END

*D_NET *899 0.0137276
*CONN
*I *9820:A I *D sky130_fd_sc_hd__dlygate4sd3_1
*I *9205:A1 I *D sky130_fd_sc_hd__a22o_1
*I *9210:A1 I *D sky130_fd_sc_hd__a21o_1
*I *9605:Q O *D sky130_fd_sc_hd__dfrtp_1
*CAP
1 *9820:A 0.00018816
2 *9205:A1 0
3 *9210:A1 0.00159319
4 *9605:Q 0.000429384
5 *899:28 0.00332987
6 *899:6 0.00235422
7 *911:DIODE *899:28 0.00014183
8 *912:DIODE *899:28 0.000295925
9 *9180:C *899:28 0.000647985
10 *9181:C1 *899:28 9.90367e-05
11 *9182:A_N *899:28 9.76798e-05
12 *9182:C *899:28 9.18015e-05
13 *9195:A2 *899:28 7.64473e-05
14 *9195:B1 *899:28 1.96859e-05
15 *9195:B2 *899:28 6.26774e-06
16 *9196:A3 *899:28 2.77289e-05
17 *9197:A *899:28 9.47306e-05
18 *9197:B *899:28 7.06071e-05
19 *9200:A1 *899:28 0.000267377
20 *9205:A2 *899:28 0.000156521
21 *9206:A1 *9210:A1 0.000821686
22 *9206:C1 *9210:A1 0.000139491
23 *9206:C1 *899:28 0.000130308
24 *9213:A1 *9210:A1 0.000188586
25 *9213:B1 *9210:A1 0.000115414
26 *9587:RESET_B *899:28 0.000177052
27 *9605:RESET_B *899:6 0.000186669
28 *9624:CLK *899:28 2.59355e-05
29 *9624:D *899:28 0.000316631
30 *334:8 *899:28 5.33005e-05
31 *336:18 *9210:A1 2.28598e-05
32 *336:18 *899:28 2.44318e-05
33 *338:29 *899:28 2.25554e-05
34 *338:31 *899:28 0.000265453
35 *341:21 *899:28 2.95726e-05
36 *342:27 *899:28 1.57523e-05
37 *599:14 *899:28 1.69115e-05
38 *616:96 *899:28 6.97409e-05
39 *619:127 *899:28 0.00018372
40 *619:140 *899:28 4.27935e-05
41 *698:58 *899:28 3.34024e-05
42 *719:8 *899:28 1.99198e-05
43 *729:24 *899:6 4.04061e-05
44 *729:24 *899:28 9.79901e-06
45 *731:83 *9820:A 0
46 *731:83 *899:28 0.000210292
47 *860:25 *9210:A1 0.000274294
48 *866:14 *9820:A 0
49 *867:18 *899:28 0.000302161
*RES
1 *9605:Q *899:6 14.7643 
2 *899:6 *899:28 49.3571 
3 *899:28 *9210:A1 31.7464 
4 *899:28 *9205:A1 9.3 
5 *899:6 *9820:A 21.4607 
*END
